*Heading
** Job name: dicing_4HSiC_d020_bw40 Model name: dicing_4HSiC_d020_bw40
** Generated by: Abaqus/CAE 2024
*Preprint, echo=NO, model=NO, history=NO, contact=NO
**
** PARTS
**
*Part, name=Blade
*Node
      1, 1.99999995e-05,           0.
      2, 1.40000002e-05, -6.00000021e-06
      3, -1.40000002e-05, -6.00000021e-06
      4, -1.99999995e-05,           0.
      5, 1.89999992e-05, -9.99999997e-07
      6, 1.80000006e-05, -1.99999999e-06
      7, 1.70000003e-05, -3.00000011e-06
      8,      1.6e-05, -3.99999999e-06
      9, 1.49999996e-05, -4.99999987e-06
     10, 1.25263159e-05, -6.00000021e-06
     11, 1.10526316e-05, -6.00000021e-06
     12, 9.57894736e-06, -6.00000021e-06
     13, 8.10526308e-06, -6.00000021e-06
     14, 6.6315788e-06, -6.00000021e-06
     15, 5.15789452e-06, -6.00000021e-06
     16, 3.68421047e-06, -6.00000021e-06
     17, 2.21052642e-06, -6.00000021e-06
     18, 7.36842082e-07, -6.00000021e-06
     19, -7.36842082e-07, -6.00000021e-06
     20, -2.21052642e-06, -6.00000021e-06
     21, -3.68421047e-06, -6.00000021e-06
     22, -5.15789452e-06, -6.00000021e-06
     23, -6.6315788e-06, -6.00000021e-06
     24, -8.10526308e-06, -6.00000021e-06
     25, -9.57894736e-06, -6.00000021e-06
     26, -1.10526316e-05, -6.00000021e-06
     27, -1.25263159e-05, -6.00000021e-06
     28, -1.49999996e-05, -4.99999987e-06
     29,     -1.6e-05, -3.99999999e-06
     30, -1.70000003e-05, -3.00000011e-06
     31, -1.80000006e-05, -1.99999999e-06
     32, -1.89999992e-05, -9.99999997e-07
*Element, type=R2D2
1, 1, 5
2, 5, 6
3, 6, 7
4, 7, 8
5, 8, 9
6, 9, 2
 7,  2, 10
 8, 10, 11
 9, 11, 12
10, 12, 13
11, 13, 14
12, 14, 15
13, 15, 16
14, 16, 17
15, 17, 18
16, 18, 19
17, 19, 20
18, 20, 21
19, 21, 22
20, 22, 23
21, 23, 24
22, 24, 25
23, 25, 26
24, 26, 27
25, 27,  3
26,  3, 28
27, 28, 29
28, 29, 30
29, 30, 31
30, 31, 32
31, 32,  4
*Node
     33,           0.,           0.,           0.
*Nset, nset=Blade-RefPt_, internal
33, 
*Elset, elset=Blade, generate
  1,  31,   1
*End Part
**  
*Part, name=Wafer
*Node
      1, 0.000369999994,           0.
      2, 0.000369999994, 0.000199999995
      3,      0.00013, 0.000199999995
      4,      0.00013,           0.
      5,           0., 0.000199999995
      6,           0.,           0.
      7, 0.000500000024,           0.
      8, 0.000500000024, 0.000199999995
      9, 0.000369999994, 4.99999987e-06
     10, 0.000369999994, 9.99999975e-06
     11, 0.000369999994, 1.49999996e-05
     12, 0.000369999994, 1.99999995e-05
     13, 0.000369999994, 2.49999994e-05
     14, 0.000369999994, 2.99999992e-05
     15, 0.000369999994, 3.50000009e-05
     16, 0.000369999994, 3.9999999e-05
     17, 0.000369999994, 4.50000007e-05
     18, 0.000369999994, 4.99999987e-05
     19, 0.000369999994, 5.50000004e-05
     20, 0.000369999994, 5.99999985e-05
     21, 0.000369999994, 6.50000002e-05
     22, 0.000369999994, 7.00000019e-05
     23, 0.000369999994, 7.50000036e-05
     24, 0.000369999994, 7.9999998e-05
     25, 0.000369999994, 8.49999997e-05
     26, 0.000369999994, 9.00000014e-05
     27, 0.000369999994, 9.50000031e-05
     28, 0.000369999994, 9.99999975e-05
     29, 0.000369999994, 0.000104999999
     30, 0.000369999994, 0.000110000001
     31, 0.000369999994, 0.000115000003
     32, 0.000369999994, 0.000119999997
     33, 0.000369999994, 0.000125000006
     34, 0.000369999994,      0.00013
     35, 0.000369999994, 0.000134999995
     36, 0.000369999994, 0.000140000004
     37, 0.000369999994, 0.000144999998
     38, 0.000369999994, 0.000150000007
     39, 0.000369999994, 0.000155000002
     40, 0.000369999994, 0.000159999996
     41, 0.000369999994, 0.000165000005
     42, 0.000369999994, 0.000169999999
     43, 0.000369999994, 0.000174999994
     44, 0.000369999994, 0.000180000003
     45, 0.000369999994, 0.000184999997
     46, 0.000369999994, 0.000190000006
     47, 0.000369999994, 0.000195000001
     48, 0.000368500012, 0.000199999995
     49, 0.000367000001, 0.000199999995
     50, 0.000365499989, 0.000199999995
     51, 0.000364000007, 0.000199999995
     52, 0.000362499995, 0.000199999995
     53, 0.000361000013, 0.000199999995
     54, 0.000359500002, 0.000199999995
     55, 0.00035799999, 0.000199999995
     56, 0.000356500008, 0.000199999995
     57, 0.000354999996, 0.000199999995
     58, 0.000353500014, 0.000199999995
     59, 0.000352000003, 0.000199999995
     60, 0.000350499991, 0.000199999995
     61, 0.000349000009, 0.000199999995
     62, 0.000347499998, 0.000199999995
     63, 0.000345999986, 0.000199999995
     64, 0.000344500004, 0.000199999995
     65, 0.000342999992, 0.000199999995
     66, 0.00034150001, 0.000199999995
     67, 0.000339999999, 0.000199999995
     68, 0.000338499987, 0.000199999995
     69, 0.000337000005, 0.000199999995
     70, 0.000335499994, 0.000199999995
     71, 0.000334000011, 0.000199999995
     72,    0.0003325, 0.000199999995
     73, 0.000330999988, 0.000199999995
     74, 0.000329500006, 0.000199999995
     75, 0.000327999995, 0.000199999995
     76, 0.000326500012, 0.000199999995
     77, 0.000325000001, 0.000199999995
     78, 0.000323499989, 0.000199999995
     79, 0.000322000007, 0.000199999995
     80, 0.000320499996, 0.000199999995
     81, 0.000319000013, 0.000199999995
     82, 0.000317500002, 0.000199999995
     83, 0.000315999991, 0.000199999995
     84, 0.000314500008, 0.000199999995
     85, 0.000312999997, 0.000199999995
     86, 0.000311500015, 0.000199999995
     87, 0.000310000003, 0.000199999995
     88, 0.000308499992, 0.000199999995
     89, 0.000307000009, 0.000199999995
     90, 0.000305499998, 0.000199999995
     91, 0.000303999986, 0.000199999995
     92, 0.000302500004, 0.000199999995
     93, 0.000300999993, 0.000199999995
     94, 0.00029950001, 0.000199999995
     95, 0.000297999999, 0.000199999995
     96, 0.000296499988, 0.000199999995
     97, 0.000295000005, 0.000199999995
     98, 0.000293499994, 0.000199999995
     99, 0.000292000012, 0.000199999995
    100,    0.0002905, 0.000199999995
    101, 0.000288999989, 0.000199999995
    102, 0.000287500006, 0.000199999995
    103, 0.000285999995, 0.000199999995
    104, 0.000284500013, 0.000199999995
    105, 0.000283000001, 0.000199999995
    106, 0.00028149999, 0.000199999995
    107, 0.000280000007, 0.000199999995
    108, 0.000278499996, 0.000199999995
    109, 0.000277000014, 0.000199999995
    110, 0.000275500002, 0.000199999995
    111, 0.000273999991, 0.000199999995
    112, 0.000272500009, 0.000199999995
    113, 0.000270999997, 0.000199999995
    114, 0.000269499986, 0.000199999995
    115, 0.000268000003, 0.000199999995
    116, 0.000266499992, 0.000199999995
    117, 0.00026500001, 0.000199999995
    118, 0.000263499998, 0.000199999995
    119, 0.000261999987, 0.000199999995
    120, 0.000260500005, 0.000199999995
    121, 0.000258999993, 0.000199999995
    122, 0.000257500011, 0.000199999995
    123, 0.000255999999, 0.000199999995
    124, 0.000254499988, 0.000199999995
    125, 0.000253000006, 0.000199999995
    126, 0.000251499994, 0.000199999995
    127, 0.000250000012, 0.000199999995
    128,    0.0002485, 0.000199999995
    129, 0.000246999989, 0.000199999995
    130, 0.000245500007, 0.000199999995
    131, 0.000243999995, 0.000199999995
    132, 0.000242499998, 0.000199999995
    133, 0.000241000002, 0.000199999995
    134, 0.000239500005, 0.000199999995
    135, 0.000237999993, 0.000199999995
    136, 0.000236499996, 0.000199999995
    137,     0.000235, 0.000199999995
    138, 0.000233500003, 0.000199999995
    139, 0.000232000006, 0.000199999995
    140, 0.000230499994, 0.000199999995
    141, 0.000228999997, 0.000199999995
    142, 0.000227500001, 0.000199999995
    143, 0.000226000004, 0.000199999995
    144, 0.000224500007, 0.000199999995
    145, 0.000222999995, 0.000199999995
    146, 0.000221499999, 0.000199999995
    147, 0.000220000002, 0.000199999995
    148, 0.000218500005, 0.000199999995
    149, 0.000216999993, 0.000199999995
    150, 0.000215499997, 0.000199999995
    151,     0.000214, 0.000199999995
    152, 0.000212500003, 0.000199999995
    153, 0.000211000006, 0.000199999995
    154, 0.000209499995, 0.000199999995
    155, 0.000207999998, 0.000199999995
    156, 0.000206500001, 0.000199999995
    157, 0.000205000004, 0.000199999995
    158, 0.000203500007, 0.000199999995
    159, 0.000201999996, 0.000199999995
    160, 0.000200499999, 0.000199999995
    161, 0.000199000002, 0.000199999995
    162, 0.000197500005, 0.000199999995
    163, 0.000195999994, 0.000199999995
    164, 0.000194499997, 0.000199999995
    165,     0.000193, 0.000199999995
    166, 0.000191500003, 0.000199999995
    167, 0.000190000006, 0.000199999995
    168, 0.000188499995, 0.000199999995
    169, 0.000186999998, 0.000199999995
    170, 0.000185500001, 0.000199999995
    171, 0.000184000004, 0.000199999995
    172, 0.000182500007, 0.000199999995
    173, 0.000180999996, 0.000199999995
    174, 0.000179499999, 0.000199999995
    175, 0.000178000002, 0.000199999995
    176, 0.000176500005, 0.000199999995
    177, 0.000174999994, 0.000199999995
    178, 0.000173499997, 0.000199999995
    179,     0.000172, 0.000199999995
    180, 0.000170500003, 0.000199999995
    181, 0.000169000006, 0.000199999995
    182, 0.000167499995, 0.000199999995
    183, 0.000165999998, 0.000199999995
    184, 0.000164500001, 0.000199999995
    185, 0.000163000004, 0.000199999995
    186, 0.000161499993, 0.000199999995
    187, 0.000159999996, 0.000199999995
    188, 0.000158499999, 0.000199999995
    189, 0.000157000002, 0.000199999995
    190, 0.000155500005, 0.000199999995
    191, 0.000153999994, 0.000199999995
    192, 0.000152499997, 0.000199999995
    193,     0.000151, 0.000199999995
    194, 0.000149500003, 0.000199999995
    195, 0.000148000006, 0.000199999995
    196, 0.000146499995, 0.000199999995
    197, 0.000144999998, 0.000199999995
    198, 0.000143500001, 0.000199999995
    199, 0.000142000004, 0.000199999995
    200, 0.000140499993, 0.000199999995
    201, 0.000138999996, 0.000199999995
    202, 0.000137499999, 0.000199999995
    203, 0.000136000002, 0.000199999995
    204, 0.000134500006, 0.000199999995
    205, 0.000132999994, 0.000199999995
    206, 0.000131499997, 0.000199999995
    207,      0.00013, 0.000195000001
    208,      0.00013, 0.000190000006
    209,      0.00013, 0.000184999997
    210,      0.00013, 0.000180000003
    211,      0.00013, 0.000174999994
    212,      0.00013, 0.000169999999
    213,      0.00013, 0.000165000005
    214,      0.00013, 0.000159999996
    215,      0.00013, 0.000155000002
    216,      0.00013, 0.000150000007
    217,      0.00013, 0.000144999998
    218,      0.00013, 0.000140000004
    219,      0.00013, 0.000134999995
    220,      0.00013,      0.00013
    221,      0.00013, 0.000125000006
    222,      0.00013, 0.000119999997
    223,      0.00013, 0.000115000003
    224,      0.00013, 0.000110000001
    225,      0.00013, 0.000104999999
    226,      0.00013, 9.99999975e-05
    227,      0.00013, 9.50000031e-05
    228,      0.00013, 9.00000014e-05
    229,      0.00013, 8.49999997e-05
    230,      0.00013, 7.9999998e-05
    231,      0.00013, 7.50000036e-05
    232,      0.00013, 7.00000019e-05
    233,      0.00013, 6.50000002e-05
    234,      0.00013, 5.99999985e-05
    235,      0.00013, 5.50000004e-05
    236,      0.00013, 4.99999987e-05
    237,      0.00013, 4.50000007e-05
    238,      0.00013, 3.9999999e-05
    239,      0.00013, 3.50000009e-05
    240,      0.00013, 2.99999992e-05
    241,      0.00013, 2.49999994e-05
    242,      0.00013, 1.99999995e-05
    243,      0.00013, 1.49999996e-05
    244,      0.00013, 9.99999975e-06
    245,      0.00013, 4.99999987e-06
    246, 0.000131499997,           0.
    247, 0.000132999994,           0.
    248, 0.000134500006,           0.
    249, 0.000136000002,           0.
    250, 0.000137499999,           0.
    251, 0.000138999996,           0.
    252, 0.000140499993,           0.
    253, 0.000142000004,           0.
    254, 0.000143500001,           0.
    255, 0.000144999998,           0.
    256, 0.000146499995,           0.
    257, 0.000148000006,           0.
    258, 0.000149500003,           0.
    259,     0.000151,           0.
    260, 0.000152499997,           0.
    261, 0.000153999994,           0.
    262, 0.000155500005,           0.
    263, 0.000157000002,           0.
    264, 0.000158499999,           0.
    265, 0.000159999996,           0.
    266, 0.000161499993,           0.
    267, 0.000163000004,           0.
    268, 0.000164500001,           0.
    269, 0.000165999998,           0.
    270, 0.000167499995,           0.
    271, 0.000169000006,           0.
    272, 0.000170500003,           0.
    273,     0.000172,           0.
    274, 0.000173499997,           0.
    275, 0.000174999994,           0.
    276, 0.000176500005,           0.
    277, 0.000178000002,           0.
    278, 0.000179499999,           0.
    279, 0.000180999996,           0.
    280, 0.000182500007,           0.
    281, 0.000184000004,           0.
    282, 0.000185500001,           0.
    283, 0.000186999998,           0.
    284, 0.000188499995,           0.
    285, 0.000190000006,           0.
    286, 0.000191500003,           0.
    287,     0.000193,           0.
    288, 0.000194499997,           0.
    289, 0.000195999994,           0.
    290, 0.000197500005,           0.
    291, 0.000199000002,           0.
    292, 0.000200499999,           0.
    293, 0.000201999996,           0.
    294, 0.000203500007,           0.
    295, 0.000205000004,           0.
    296, 0.000206500001,           0.
    297, 0.000207999998,           0.
    298, 0.000209499995,           0.
    299, 0.000211000006,           0.
    300, 0.000212500003,           0.
    301,     0.000214,           0.
    302, 0.000215499997,           0.
    303, 0.000216999993,           0.
    304, 0.000218500005,           0.
    305, 0.000220000002,           0.
    306, 0.000221499999,           0.
    307, 0.000222999995,           0.
    308, 0.000224500007,           0.
    309, 0.000226000004,           0.
    310, 0.000227500001,           0.
    311, 0.000228999997,           0.
    312, 0.000230499994,           0.
    313, 0.000232000006,           0.
    314, 0.000233500003,           0.
    315,     0.000235,           0.
    316, 0.000236499996,           0.
    317, 0.000237999993,           0.
    318, 0.000239500005,           0.
    319, 0.000241000002,           0.
    320, 0.000242499998,           0.
    321, 0.000243999995,           0.
    322, 0.000245500007,           0.
    323, 0.000246999989,           0.
    324,    0.0002485,           0.
    325, 0.000250000012,           0.
    326, 0.000251499994,           0.
    327, 0.000253000006,           0.
    328, 0.000254499988,           0.
    329, 0.000255999999,           0.
    330, 0.000257500011,           0.
    331, 0.000258999993,           0.
    332, 0.000260500005,           0.
    333, 0.000261999987,           0.
    334, 0.000263499998,           0.
    335, 0.00026500001,           0.
    336, 0.000266499992,           0.
    337, 0.000268000003,           0.
    338, 0.000269499986,           0.
    339, 0.000270999997,           0.
    340, 0.000272500009,           0.
    341, 0.000273999991,           0.
    342, 0.000275500002,           0.
    343, 0.000277000014,           0.
    344, 0.000278499996,           0.
    345, 0.000280000007,           0.
    346, 0.00028149999,           0.
    347, 0.000283000001,           0.
    348, 0.000284500013,           0.
    349, 0.000285999995,           0.
    350, 0.000287500006,           0.
    351, 0.000288999989,           0.
    352,    0.0002905,           0.
    353, 0.000292000012,           0.
    354, 0.000293499994,           0.
    355, 0.000295000005,           0.
    356, 0.000296499988,           0.
    357, 0.000297999999,           0.
    358, 0.00029950001,           0.
    359, 0.000300999993,           0.
    360, 0.000302500004,           0.
    361, 0.000303999986,           0.
    362, 0.000305499998,           0.
    363, 0.000307000009,           0.
    364, 0.000308499992,           0.
    365, 0.000310000003,           0.
    366, 0.000311500015,           0.
    367, 0.000312999997,           0.
    368, 0.000314500008,           0.
    369, 0.000315999991,           0.
    370, 0.000317500002,           0.
    371, 0.000319000013,           0.
    372, 0.000320499996,           0.
    373, 0.000322000007,           0.
    374, 0.000323499989,           0.
    375, 0.000325000001,           0.
    376, 0.000326500012,           0.
    377, 0.000327999995,           0.
    378, 0.000329500006,           0.
    379, 0.000330999988,           0.
    380,    0.0003325,           0.
    381, 0.000334000011,           0.
    382, 0.000335499994,           0.
    383, 0.000337000005,           0.
    384, 0.000338499987,           0.
    385, 0.000339999999,           0.
    386, 0.00034150001,           0.
    387, 0.000342999992,           0.
    388, 0.000344500004,           0.
    389, 0.000345999986,           0.
    390, 0.000347499998,           0.
    391, 0.000349000009,           0.
    392, 0.000350499991,           0.
    393, 0.000352000003,           0.
    394, 0.000353500014,           0.
    395, 0.000354999996,           0.
    396, 0.000356500008,           0.
    397, 0.00035799999,           0.
    398, 0.000359500002,           0.
    399, 0.000361000013,           0.
    400, 0.000362499995,           0.
    401, 0.000364000007,           0.
    402, 0.000365499989,           0.
    403, 0.000367000001,           0.
    404, 0.000368500012,           0.
    405, 0.000125000006, 0.000199999995
    406, 0.000119999997, 0.000199999995
    407, 0.000115000003, 0.000199999995
    408, 0.000110000001, 0.000199999995
    409, 0.000104999999, 0.000199999995
    410, 9.99999975e-05, 0.000199999995
    411, 9.50000031e-05, 0.000199999995
    412, 9.00000014e-05, 0.000199999995
    413, 8.49999997e-05, 0.000199999995
    414, 7.9999998e-05, 0.000199999995
    415, 7.50000036e-05, 0.000199999995
    416, 7.00000019e-05, 0.000199999995
    417, 6.50000002e-05, 0.000199999995
    418, 5.99999985e-05, 0.000199999995
    419, 5.50000004e-05, 0.000199999995
    420, 4.99999987e-05, 0.000199999995
    421, 4.50000007e-05, 0.000199999995
    422, 3.9999999e-05, 0.000199999995
    423, 3.50000009e-05, 0.000199999995
    424, 2.99999992e-05, 0.000199999995
    425, 2.49999994e-05, 0.000199999995
    426, 1.99999995e-05, 0.000199999995
    427, 1.49999996e-05, 0.000199999995
    428, 9.99999975e-06, 0.000199999995
    429, 4.99999987e-06, 0.000199999995
    430,           0., 0.000195000001
    431,           0., 0.000190000006
    432,           0., 0.000184999997
    433,           0., 0.000180000003
    434,           0., 0.000174999994
    435,           0., 0.000169999999
    436,           0., 0.000165000005
    437,           0., 0.000159999996
    438,           0., 0.000155000002
    439,           0., 0.000150000007
    440,           0., 0.000144999998
    441,           0., 0.000140000004
    442,           0., 0.000134999995
    443,           0.,      0.00013
    444,           0., 0.000125000006
    445,           0., 0.000119999997
    446,           0., 0.000115000003
    447,           0., 0.000110000001
    448,           0., 0.000104999999
    449,           0., 9.99999975e-05
    450,           0., 9.50000031e-05
    451,           0., 9.00000014e-05
    452,           0., 8.49999997e-05
    453,           0., 7.9999998e-05
    454,           0., 7.50000036e-05
    455,           0., 7.00000019e-05
    456,           0., 6.50000002e-05
    457,           0., 5.99999985e-05
    458,           0., 5.50000004e-05
    459,           0., 4.99999987e-05
    460,           0., 4.50000007e-05
    461,           0., 3.9999999e-05
    462,           0., 3.50000009e-05
    463,           0., 2.99999992e-05
    464,           0., 2.49999994e-05
    465,           0., 1.99999995e-05
    466,           0., 1.49999996e-05
    467,           0., 9.99999975e-06
    468,           0., 4.99999987e-06
    469, 4.99999987e-06,           0.
    470, 9.99999975e-06,           0.
    471, 1.49999996e-05,           0.
    472, 1.99999995e-05,           0.
    473, 2.49999994e-05,           0.
    474, 2.99999992e-05,           0.
    475, 3.50000009e-05,           0.
    476, 3.9999999e-05,           0.
    477, 4.50000007e-05,           0.
    478, 4.99999987e-05,           0.
    479, 5.50000004e-05,           0.
    480, 5.99999985e-05,           0.
    481, 6.50000002e-05,           0.
    482, 7.00000019e-05,           0.
    483, 7.50000036e-05,           0.
    484, 7.9999998e-05,           0.
    485, 8.49999997e-05,           0.
    486, 9.00000014e-05,           0.
    487, 9.50000031e-05,           0.
    488, 9.99999975e-05,           0.
    489, 0.000104999999,           0.
    490, 0.000110000001,           0.
    491, 0.000115000003,           0.
    492, 0.000119999997,           0.
    493, 0.000125000006,           0.
    494, 0.000375000003,           0.
    495, 0.000380000012,           0.
    496, 0.000384999992,           0.
    497, 0.000390000001,           0.
    498, 0.00039500001,           0.
    499, 0.00039999999,           0.
    500, 0.000404999999,           0.
    501, 0.000410000008,           0.
    502, 0.000414999988,           0.
    503, 0.000419999997,           0.
    504, 0.000425000006,           0.
    505, 0.000429999985,           0.
    506, 0.000434999994,           0.
    507, 0.000440000003,           0.
    508, 0.000445000012,           0.
    509, 0.000449999992,           0.
    510, 0.000455000001,           0.
    511, 0.00046000001,           0.
    512, 0.00046499999,           0.
    513, 0.000469999999,           0.
    514, 0.000475000008,           0.
    515, 0.000479999988,           0.
    516, 0.000484999997,           0.
    517, 0.000490000006,           0.
    518, 0.000494999986,           0.
    519, 0.000500000024, 4.99999987e-06
    520, 0.000500000024, 9.99999975e-06
    521, 0.000500000024, 1.49999996e-05
    522, 0.000500000024, 1.99999995e-05
    523, 0.000500000024, 2.49999994e-05
    524, 0.000500000024, 2.99999992e-05
    525, 0.000500000024, 3.50000009e-05
    526, 0.000500000024, 3.9999999e-05
    527, 0.000500000024, 4.50000007e-05
    528, 0.000500000024, 4.99999987e-05
    529, 0.000500000024, 5.50000004e-05
    530, 0.000500000024, 5.99999985e-05
    531, 0.000500000024, 6.50000002e-05
    532, 0.000500000024, 7.00000019e-05
    533, 0.000500000024, 7.50000036e-05
    534, 0.000500000024, 7.9999998e-05
    535, 0.000500000024, 8.49999997e-05
    536, 0.000500000024, 9.00000014e-05
    537, 0.000500000024, 9.50000031e-05
    538, 0.000500000024, 9.99999975e-05
    539, 0.000500000024, 0.000104999999
    540, 0.000500000024, 0.000110000001
    541, 0.000500000024, 0.000115000003
    542, 0.000500000024, 0.000119999997
    543, 0.000500000024, 0.000125000006
    544, 0.000500000024,      0.00013
    545, 0.000500000024, 0.000134999995
    546, 0.000500000024, 0.000140000004
    547, 0.000500000024, 0.000144999998
    548, 0.000500000024, 0.000150000007
    549, 0.000500000024, 0.000155000002
    550, 0.000500000024, 0.000159999996
    551, 0.000500000024, 0.000165000005
    552, 0.000500000024, 0.000169999999
    553, 0.000500000024, 0.000174999994
    554, 0.000500000024, 0.000180000003
    555, 0.000500000024, 0.000184999997
    556, 0.000500000024, 0.000190000006
    557, 0.000500000024, 0.000195000001
    558, 0.000494999986, 0.000199999995
    559, 0.000490000006, 0.000199999995
    560, 0.000484999997, 0.000199999995
    561, 0.000479999988, 0.000199999995
    562, 0.000475000008, 0.000199999995
    563, 0.000469999999, 0.000199999995
    564, 0.00046499999, 0.000199999995
    565, 0.00046000001, 0.000199999995
    566, 0.000455000001, 0.000199999995
    567, 0.000449999992, 0.000199999995
    568, 0.000445000012, 0.000199999995
    569, 0.000440000003, 0.000199999995
    570, 0.000434999994, 0.000199999995
    571, 0.000429999985, 0.000199999995
    572, 0.000425000006, 0.000199999995
    573, 0.000419999997, 0.000199999995
    574, 0.000414999988, 0.000199999995
    575, 0.000410000008, 0.000199999995
    576, 0.000404999999, 0.000199999995
    577, 0.00039999999, 0.000199999995
    578, 0.00039500001, 0.000199999995
    579, 0.000390000001, 0.000199999995
    580, 0.000384999992, 0.000199999995
    581, 0.000380000012, 0.000199999995
    582, 0.000375000003, 0.000199999995
    583, 0.000368500012, 4.99999987e-06
    584, 0.000368500012, 9.99999975e-06
    585, 0.000368500012, 1.49999996e-05
    586, 0.000368500012, 1.99999995e-05
    587, 0.000368500012, 2.49999994e-05
    588, 0.000368500012, 2.99999992e-05
    589, 0.000368500012, 3.50000009e-05
    590, 0.000368500012, 3.9999999e-05
    591, 0.000368500012, 4.50000007e-05
    592, 0.000368500012, 4.99999987e-05
    593, 0.000368500012, 5.50000004e-05
    594, 0.000368500012, 5.99999985e-05
    595, 0.000368500012, 6.50000002e-05
    596, 0.000368500012, 7.00000019e-05
    597, 0.000368500012, 7.50000036e-05
    598, 0.000368500012, 7.9999998e-05
    599, 0.000368500012, 8.49999997e-05
    600, 0.000368500012, 9.00000014e-05
    601, 0.000368500012, 9.50000031e-05
    602, 0.000368500012, 9.99999975e-05
    603, 0.000368500012, 0.000104999999
    604, 0.000368500012, 0.000110000001
    605, 0.000368500012, 0.000115000003
    606, 0.000368500012, 0.000119999997
    607, 0.000368500012, 0.000125000006
    608, 0.000368500012,      0.00013
    609, 0.000368500012, 0.000134999995
    610, 0.000368500012, 0.000140000004
    611, 0.000368500012, 0.000144999998
    612, 0.000368500012, 0.000150000007
    613, 0.000368500012, 0.000155000002
    614, 0.000368500012, 0.000159999996
    615, 0.000368500012, 0.000165000005
    616, 0.000368500012, 0.000169999999
    617, 0.000368500012, 0.000174999994
    618, 0.000368500012, 0.000180000003
    619, 0.000368500012, 0.000184999997
    620, 0.000368500012, 0.000190000006
    621, 0.000368500012, 0.000195000001
    622, 0.000367000001, 4.99999987e-06
    623, 0.000367000001, 9.99999975e-06
    624, 0.000367000001, 1.49999996e-05
    625, 0.000367000001, 1.99999995e-05
    626, 0.000367000001, 2.49999994e-05
    627, 0.000367000001, 2.99999992e-05
    628, 0.000367000001, 3.50000009e-05
    629, 0.000367000001, 3.9999999e-05
    630, 0.000367000001, 4.50000007e-05
    631, 0.000367000001, 4.99999987e-05
    632, 0.000367000001, 5.50000004e-05
    633, 0.000367000001, 5.99999985e-05
    634, 0.000367000001, 6.50000002e-05
    635, 0.000367000001, 7.00000019e-05
    636, 0.000367000001, 7.50000036e-05
    637, 0.000367000001, 7.9999998e-05
    638, 0.000367000001, 8.49999997e-05
    639, 0.000367000001, 9.00000014e-05
    640, 0.000367000001, 9.50000031e-05
    641, 0.000367000001, 9.99999975e-05
    642, 0.000367000001, 0.000104999999
    643, 0.000367000001, 0.000110000001
    644, 0.000367000001, 0.000115000003
    645, 0.000367000001, 0.000119999997
    646, 0.000367000001, 0.000125000006
    647, 0.000367000001,      0.00013
    648, 0.000367000001, 0.000134999995
    649, 0.000367000001, 0.000140000004
    650, 0.000367000001, 0.000144999998
    651, 0.000367000001, 0.000150000007
    652, 0.000367000001, 0.000155000002
    653, 0.000367000001, 0.000159999996
    654, 0.000367000001, 0.000165000005
    655, 0.000367000001, 0.000169999999
    656, 0.000367000001, 0.000174999994
    657, 0.000367000001, 0.000180000003
    658, 0.000367000001, 0.000184999997
    659, 0.000367000001, 0.000190000006
    660, 0.000367000001, 0.000195000001
    661, 0.000365499989, 4.99999987e-06
    662, 0.000365499989, 9.99999975e-06
    663, 0.000365499989, 1.49999996e-05
    664, 0.000365499989, 1.99999995e-05
    665, 0.000365499989, 2.49999994e-05
    666, 0.000365499989, 2.99999992e-05
    667, 0.000365499989, 3.50000009e-05
    668, 0.000365499989, 3.9999999e-05
    669, 0.000365499989, 4.50000007e-05
    670, 0.000365499989, 4.99999987e-05
    671, 0.000365499989, 5.50000004e-05
    672, 0.000365499989, 5.99999985e-05
    673, 0.000365499989, 6.50000002e-05
    674, 0.000365499989, 7.00000019e-05
    675, 0.000365499989, 7.50000036e-05
    676, 0.000365499989, 7.9999998e-05
    677, 0.000365499989, 8.49999997e-05
    678, 0.000365499989, 9.00000014e-05
    679, 0.000365499989, 9.50000031e-05
    680, 0.000365499989, 9.99999975e-05
    681, 0.000365499989, 0.000104999999
    682, 0.000365499989, 0.000110000001
    683, 0.000365499989, 0.000115000003
    684, 0.000365499989, 0.000119999997
    685, 0.000365499989, 0.000125000006
    686, 0.000365499989,      0.00013
    687, 0.000365499989, 0.000134999995
    688, 0.000365499989, 0.000140000004
    689, 0.000365499989, 0.000144999998
    690, 0.000365499989, 0.000150000007
    691, 0.000365499989, 0.000155000002
    692, 0.000365499989, 0.000159999996
    693, 0.000365499989, 0.000165000005
    694, 0.000365499989, 0.000169999999
    695, 0.000365499989, 0.000174999994
    696, 0.000365499989, 0.000180000003
    697, 0.000365499989, 0.000184999997
    698, 0.000365499989, 0.000190000006
    699, 0.000365499989, 0.000195000001
    700, 0.000364000007, 4.99999987e-06
    701, 0.000364000007, 9.99999975e-06
    702, 0.000364000007, 1.49999996e-05
    703, 0.000364000007, 1.99999995e-05
    704, 0.000364000007, 2.49999994e-05
    705, 0.000364000007, 2.99999992e-05
    706, 0.000364000007, 3.50000009e-05
    707, 0.000364000007, 3.9999999e-05
    708, 0.000364000007, 4.50000007e-05
    709, 0.000364000007, 4.99999987e-05
    710, 0.000364000007, 5.50000004e-05
    711, 0.000364000007, 5.99999985e-05
    712, 0.000364000007, 6.50000002e-05
    713, 0.000364000007, 7.00000019e-05
    714, 0.000364000007, 7.50000036e-05
    715, 0.000364000007, 7.9999998e-05
    716, 0.000364000007, 8.49999997e-05
    717, 0.000364000007, 9.00000014e-05
    718, 0.000364000007, 9.50000031e-05
    719, 0.000364000007, 9.99999975e-05
    720, 0.000364000007, 0.000104999999
    721, 0.000364000007, 0.000110000001
    722, 0.000364000007, 0.000115000003
    723, 0.000364000007, 0.000119999997
    724, 0.000364000007, 0.000125000006
    725, 0.000364000007,      0.00013
    726, 0.000364000007, 0.000134999995
    727, 0.000364000007, 0.000140000004
    728, 0.000364000007, 0.000144999998
    729, 0.000364000007, 0.000150000007
    730, 0.000364000007, 0.000155000002
    731, 0.000364000007, 0.000159999996
    732, 0.000364000007, 0.000165000005
    733, 0.000364000007, 0.000169999999
    734, 0.000364000007, 0.000174999994
    735, 0.000364000007, 0.000180000003
    736, 0.000364000007, 0.000184999997
    737, 0.000364000007, 0.000190000006
    738, 0.000364000007, 0.000195000001
    739, 0.000362499995, 4.99999987e-06
    740, 0.000362499995, 9.99999975e-06
    741, 0.000362499995, 1.49999996e-05
    742, 0.000362499995, 1.99999995e-05
    743, 0.000362499995, 2.49999994e-05
    744, 0.000362499995, 2.99999992e-05
    745, 0.000362499995, 3.50000009e-05
    746, 0.000362499995, 3.9999999e-05
    747, 0.000362499995, 4.50000007e-05
    748, 0.000362499995, 4.99999987e-05
    749, 0.000362499995, 5.50000004e-05
    750, 0.000362499995, 5.99999985e-05
    751, 0.000362499995, 6.50000002e-05
    752, 0.000362499995, 7.00000019e-05
    753, 0.000362499995, 7.50000036e-05
    754, 0.000362499995, 7.9999998e-05
    755, 0.000362499995, 8.49999997e-05
    756, 0.000362499995, 9.00000014e-05
    757, 0.000362499995, 9.50000031e-05
    758, 0.000362499995, 9.99999975e-05
    759, 0.000362499995, 0.000104999999
    760, 0.000362499995, 0.000110000001
    761, 0.000362499995, 0.000115000003
    762, 0.000362499995, 0.000119999997
    763, 0.000362499995, 0.000125000006
    764, 0.000362499995,      0.00013
    765, 0.000362499995, 0.000134999995
    766, 0.000362499995, 0.000140000004
    767, 0.000362499995, 0.000144999998
    768, 0.000362499995, 0.000150000007
    769, 0.000362499995, 0.000155000002
    770, 0.000362499995, 0.000159999996
    771, 0.000362499995, 0.000165000005
    772, 0.000362499995, 0.000169999999
    773, 0.000362499995, 0.000174999994
    774, 0.000362499995, 0.000180000003
    775, 0.000362499995, 0.000184999997
    776, 0.000362499995, 0.000190000006
    777, 0.000362499995, 0.000195000001
    778, 0.000361000013, 4.99999987e-06
    779, 0.000361000013, 9.99999975e-06
    780, 0.000361000013, 1.49999996e-05
    781, 0.000361000013, 1.99999995e-05
    782, 0.000361000013, 2.49999994e-05
    783, 0.000361000013, 2.99999992e-05
    784, 0.000361000013, 3.50000009e-05
    785, 0.000361000013, 3.9999999e-05
    786, 0.000361000013, 4.50000007e-05
    787, 0.000361000013, 4.99999987e-05
    788, 0.000361000013, 5.50000004e-05
    789, 0.000361000013, 5.99999985e-05
    790, 0.000361000013, 6.50000002e-05
    791, 0.000361000013, 7.00000019e-05
    792, 0.000361000013, 7.50000036e-05
    793, 0.000361000013, 7.9999998e-05
    794, 0.000361000013, 8.49999997e-05
    795, 0.000361000013, 9.00000014e-05
    796, 0.000361000013, 9.50000031e-05
    797, 0.000361000013, 9.99999975e-05
    798, 0.000361000013, 0.000104999999
    799, 0.000361000013, 0.000110000001
    800, 0.000361000013, 0.000115000003
    801, 0.000361000013, 0.000119999997
    802, 0.000361000013, 0.000125000006
    803, 0.000361000013,      0.00013
    804, 0.000361000013, 0.000134999995
    805, 0.000361000013, 0.000140000004
    806, 0.000361000013, 0.000144999998
    807, 0.000361000013, 0.000150000007
    808, 0.000361000013, 0.000155000002
    809, 0.000361000013, 0.000159999996
    810, 0.000361000013, 0.000165000005
    811, 0.000361000013, 0.000169999999
    812, 0.000361000013, 0.000174999994
    813, 0.000361000013, 0.000180000003
    814, 0.000361000013, 0.000184999997
    815, 0.000361000013, 0.000190000006
    816, 0.000361000013, 0.000195000001
    817, 0.000359500002, 4.99999987e-06
    818, 0.000359500002, 9.99999975e-06
    819, 0.000359500002, 1.49999996e-05
    820, 0.000359500002, 1.99999995e-05
    821, 0.000359500002, 2.49999994e-05
    822, 0.000359500002, 2.99999992e-05
    823, 0.000359500002, 3.50000009e-05
    824, 0.000359500002, 3.9999999e-05
    825, 0.000359500002, 4.50000007e-05
    826, 0.000359500002, 4.99999987e-05
    827, 0.000359500002, 5.50000004e-05
    828, 0.000359500002, 5.99999985e-05
    829, 0.000359500002, 6.50000002e-05
    830, 0.000359500002, 7.00000019e-05
    831, 0.000359500002, 7.50000036e-05
    832, 0.000359500002, 7.9999998e-05
    833, 0.000359500002, 8.49999997e-05
    834, 0.000359500002, 9.00000014e-05
    835, 0.000359500002, 9.50000031e-05
    836, 0.000359500002, 9.99999975e-05
    837, 0.000359500002, 0.000104999999
    838, 0.000359500002, 0.000110000001
    839, 0.000359500002, 0.000115000003
    840, 0.000359500002, 0.000119999997
    841, 0.000359500002, 0.000125000006
    842, 0.000359500002,      0.00013
    843, 0.000359500002, 0.000134999995
    844, 0.000359500002, 0.000140000004
    845, 0.000359500002, 0.000144999998
    846, 0.000359500002, 0.000150000007
    847, 0.000359500002, 0.000155000002
    848, 0.000359500002, 0.000159999996
    849, 0.000359500002, 0.000165000005
    850, 0.000359500002, 0.000169999999
    851, 0.000359500002, 0.000174999994
    852, 0.000359500002, 0.000180000003
    853, 0.000359500002, 0.000184999997
    854, 0.000359500002, 0.000190000006
    855, 0.000359500002, 0.000195000001
    856, 0.00035799999, 4.99999987e-06
    857, 0.00035799999, 9.99999975e-06
    858, 0.00035799999, 1.49999996e-05
    859, 0.00035799999, 1.99999995e-05
    860, 0.00035799999, 2.49999994e-05
    861, 0.00035799999, 2.99999992e-05
    862, 0.00035799999, 3.50000009e-05
    863, 0.00035799999, 3.9999999e-05
    864, 0.00035799999, 4.50000007e-05
    865, 0.00035799999, 4.99999987e-05
    866, 0.00035799999, 5.50000004e-05
    867, 0.00035799999, 5.99999985e-05
    868, 0.00035799999, 6.50000002e-05
    869, 0.00035799999, 7.00000019e-05
    870, 0.00035799999, 7.50000036e-05
    871, 0.00035799999, 7.9999998e-05
    872, 0.00035799999, 8.49999997e-05
    873, 0.00035799999, 9.00000014e-05
    874, 0.00035799999, 9.50000031e-05
    875, 0.00035799999, 9.99999975e-05
    876, 0.00035799999, 0.000104999999
    877, 0.00035799999, 0.000110000001
    878, 0.00035799999, 0.000115000003
    879, 0.00035799999, 0.000119999997
    880, 0.00035799999, 0.000125000006
    881, 0.00035799999,      0.00013
    882, 0.00035799999, 0.000134999995
    883, 0.00035799999, 0.000140000004
    884, 0.00035799999, 0.000144999998
    885, 0.00035799999, 0.000150000007
    886, 0.00035799999, 0.000155000002
    887, 0.00035799999, 0.000159999996
    888, 0.00035799999, 0.000165000005
    889, 0.00035799999, 0.000169999999
    890, 0.00035799999, 0.000174999994
    891, 0.00035799999, 0.000180000003
    892, 0.00035799999, 0.000184999997
    893, 0.00035799999, 0.000190000006
    894, 0.00035799999, 0.000195000001
    895, 0.000356500008, 4.99999987e-06
    896, 0.000356500008, 9.99999975e-06
    897, 0.000356500008, 1.49999996e-05
    898, 0.000356500008, 1.99999995e-05
    899, 0.000356500008, 2.49999994e-05
    900, 0.000356500008, 2.99999992e-05
    901, 0.000356500008, 3.50000009e-05
    902, 0.000356500008, 3.9999999e-05
    903, 0.000356500008, 4.50000007e-05
    904, 0.000356500008, 4.99999987e-05
    905, 0.000356500008, 5.50000004e-05
    906, 0.000356500008, 5.99999985e-05
    907, 0.000356500008, 6.50000002e-05
    908, 0.000356500008, 7.00000019e-05
    909, 0.000356500008, 7.50000036e-05
    910, 0.000356500008, 7.9999998e-05
    911, 0.000356500008, 8.49999997e-05
    912, 0.000356500008, 9.00000014e-05
    913, 0.000356500008, 9.50000031e-05
    914, 0.000356500008, 9.99999975e-05
    915, 0.000356500008, 0.000104999999
    916, 0.000356500008, 0.000110000001
    917, 0.000356500008, 0.000115000003
    918, 0.000356500008, 0.000119999997
    919, 0.000356500008, 0.000125000006
    920, 0.000356500008,      0.00013
    921, 0.000356500008, 0.000134999995
    922, 0.000356500008, 0.000140000004
    923, 0.000356500008, 0.000144999998
    924, 0.000356500008, 0.000150000007
    925, 0.000356500008, 0.000155000002
    926, 0.000356500008, 0.000159999996
    927, 0.000356500008, 0.000165000005
    928, 0.000356500008, 0.000169999999
    929, 0.000356500008, 0.000174999994
    930, 0.000356500008, 0.000180000003
    931, 0.000356500008, 0.000184999997
    932, 0.000356500008, 0.000190000006
    933, 0.000356500008, 0.000195000001
    934, 0.000354999996, 4.99999987e-06
    935, 0.000354999996, 9.99999975e-06
    936, 0.000354999996, 1.49999996e-05
    937, 0.000354999996, 1.99999995e-05
    938, 0.000354999996, 2.49999994e-05
    939, 0.000354999996, 2.99999992e-05
    940, 0.000354999996, 3.50000009e-05
    941, 0.000354999996, 3.9999999e-05
    942, 0.000354999996, 4.50000007e-05
    943, 0.000354999996, 4.99999987e-05
    944, 0.000354999996, 5.50000004e-05
    945, 0.000354999996, 5.99999985e-05
    946, 0.000354999996, 6.50000002e-05
    947, 0.000354999996, 7.00000019e-05
    948, 0.000354999996, 7.50000036e-05
    949, 0.000354999996, 7.9999998e-05
    950, 0.000354999996, 8.49999997e-05
    951, 0.000354999996, 9.00000014e-05
    952, 0.000354999996, 9.50000031e-05
    953, 0.000354999996, 9.99999975e-05
    954, 0.000354999996, 0.000104999999
    955, 0.000354999996, 0.000110000001
    956, 0.000354999996, 0.000115000003
    957, 0.000354999996, 0.000119999997
    958, 0.000354999996, 0.000125000006
    959, 0.000354999996,      0.00013
    960, 0.000354999996, 0.000134999995
    961, 0.000354999996, 0.000140000004
    962, 0.000354999996, 0.000144999998
    963, 0.000354999996, 0.000150000007
    964, 0.000354999996, 0.000155000002
    965, 0.000354999996, 0.000159999996
    966, 0.000354999996, 0.000165000005
    967, 0.000354999996, 0.000169999999
    968, 0.000354999996, 0.000174999994
    969, 0.000354999996, 0.000180000003
    970, 0.000354999996, 0.000184999997
    971, 0.000354999996, 0.000190000006
    972, 0.000354999996, 0.000195000001
    973, 0.000353500014, 4.99999987e-06
    974, 0.000353500014, 9.99999975e-06
    975, 0.000353500014, 1.49999996e-05
    976, 0.000353500014, 1.99999995e-05
    977, 0.000353500014, 2.49999994e-05
    978, 0.000353500014, 2.99999992e-05
    979, 0.000353500014, 3.50000009e-05
    980, 0.000353500014, 3.9999999e-05
    981, 0.000353500014, 4.50000007e-05
    982, 0.000353500014, 4.99999987e-05
    983, 0.000353500014, 5.50000004e-05
    984, 0.000353500014, 5.99999985e-05
    985, 0.000353500014, 6.50000002e-05
    986, 0.000353500014, 7.00000019e-05
    987, 0.000353500014, 7.50000036e-05
    988, 0.000353500014, 7.9999998e-05
    989, 0.000353500014, 8.49999997e-05
    990, 0.000353500014, 9.00000014e-05
    991, 0.000353500014, 9.50000031e-05
    992, 0.000353500014, 9.99999975e-05
    993, 0.000353500014, 0.000104999999
    994, 0.000353500014, 0.000110000001
    995, 0.000353500014, 0.000115000003
    996, 0.000353500014, 0.000119999997
    997, 0.000353500014, 0.000125000006
    998, 0.000353500014,      0.00013
    999, 0.000353500014, 0.000134999995
   1000, 0.000353500014, 0.000140000004
   1001, 0.000353500014, 0.000144999998
   1002, 0.000353500014, 0.000150000007
   1003, 0.000353500014, 0.000155000002
   1004, 0.000353500014, 0.000159999996
   1005, 0.000353500014, 0.000165000005
   1006, 0.000353500014, 0.000169999999
   1007, 0.000353500014, 0.000174999994
   1008, 0.000353500014, 0.000180000003
   1009, 0.000353500014, 0.000184999997
   1010, 0.000353500014, 0.000190000006
   1011, 0.000353500014, 0.000195000001
   1012, 0.000352000003, 4.99999987e-06
   1013, 0.000352000003, 9.99999975e-06
   1014, 0.000352000003, 1.49999996e-05
   1015, 0.000352000003, 1.99999995e-05
   1016, 0.000352000003, 2.49999994e-05
   1017, 0.000352000003, 2.99999992e-05
   1018, 0.000352000003, 3.50000009e-05
   1019, 0.000352000003, 3.9999999e-05
   1020, 0.000352000003, 4.50000007e-05
   1021, 0.000352000003, 4.99999987e-05
   1022, 0.000352000003, 5.50000004e-05
   1023, 0.000352000003, 5.99999985e-05
   1024, 0.000352000003, 6.50000002e-05
   1025, 0.000352000003, 7.00000019e-05
   1026, 0.000352000003, 7.50000036e-05
   1027, 0.000352000003, 7.9999998e-05
   1028, 0.000352000003, 8.49999997e-05
   1029, 0.000352000003, 9.00000014e-05
   1030, 0.000352000003, 9.50000031e-05
   1031, 0.000352000003, 9.99999975e-05
   1032, 0.000352000003, 0.000104999999
   1033, 0.000352000003, 0.000110000001
   1034, 0.000352000003, 0.000115000003
   1035, 0.000352000003, 0.000119999997
   1036, 0.000352000003, 0.000125000006
   1037, 0.000352000003,      0.00013
   1038, 0.000352000003, 0.000134999995
   1039, 0.000352000003, 0.000140000004
   1040, 0.000352000003, 0.000144999998
   1041, 0.000352000003, 0.000150000007
   1042, 0.000352000003, 0.000155000002
   1043, 0.000352000003, 0.000159999996
   1044, 0.000352000003, 0.000165000005
   1045, 0.000352000003, 0.000169999999
   1046, 0.000352000003, 0.000174999994
   1047, 0.000352000003, 0.000180000003
   1048, 0.000352000003, 0.000184999997
   1049, 0.000352000003, 0.000190000006
   1050, 0.000352000003, 0.000195000001
   1051, 0.000350499991, 4.99999987e-06
   1052, 0.000350499991, 9.99999975e-06
   1053, 0.000350499991, 1.49999996e-05
   1054, 0.000350499991, 1.99999995e-05
   1055, 0.000350499991, 2.49999994e-05
   1056, 0.000350499991, 2.99999992e-05
   1057, 0.000350499991, 3.50000009e-05
   1058, 0.000350499991, 3.9999999e-05
   1059, 0.000350499991, 4.50000007e-05
   1060, 0.000350499991, 4.99999987e-05
   1061, 0.000350499991, 5.50000004e-05
   1062, 0.000350499991, 5.99999985e-05
   1063, 0.000350499991, 6.50000002e-05
   1064, 0.000350499991, 7.00000019e-05
   1065, 0.000350499991, 7.50000036e-05
   1066, 0.000350499991, 7.9999998e-05
   1067, 0.000350499991, 8.49999997e-05
   1068, 0.000350499991, 9.00000014e-05
   1069, 0.000350499991, 9.50000031e-05
   1070, 0.000350499991, 9.99999975e-05
   1071, 0.000350499991, 0.000104999999
   1072, 0.000350499991, 0.000110000001
   1073, 0.000350499991, 0.000115000003
   1074, 0.000350499991, 0.000119999997
   1075, 0.000350499991, 0.000125000006
   1076, 0.000350499991,      0.00013
   1077, 0.000350499991, 0.000134999995
   1078, 0.000350499991, 0.000140000004
   1079, 0.000350499991, 0.000144999998
   1080, 0.000350499991, 0.000150000007
   1081, 0.000350499991, 0.000155000002
   1082, 0.000350499991, 0.000159999996
   1083, 0.000350499991, 0.000165000005
   1084, 0.000350499991, 0.000169999999
   1085, 0.000350499991, 0.000174999994
   1086, 0.000350499991, 0.000180000003
   1087, 0.000350499991, 0.000184999997
   1088, 0.000350499991, 0.000190000006
   1089, 0.000350499991, 0.000195000001
   1090, 0.000349000009, 4.99999987e-06
   1091, 0.000349000009, 9.99999975e-06
   1092, 0.000349000009, 1.49999996e-05
   1093, 0.000349000009, 1.99999995e-05
   1094, 0.000349000009, 2.49999994e-05
   1095, 0.000349000009, 2.99999992e-05
   1096, 0.000349000009, 3.50000009e-05
   1097, 0.000349000009, 3.9999999e-05
   1098, 0.000349000009, 4.50000007e-05
   1099, 0.000349000009, 4.99999987e-05
   1100, 0.000349000009, 5.50000004e-05
   1101, 0.000349000009, 5.99999985e-05
   1102, 0.000349000009, 6.50000002e-05
   1103, 0.000349000009, 7.00000019e-05
   1104, 0.000349000009, 7.50000036e-05
   1105, 0.000349000009, 7.9999998e-05
   1106, 0.000349000009, 8.49999997e-05
   1107, 0.000349000009, 9.00000014e-05
   1108, 0.000349000009, 9.50000031e-05
   1109, 0.000349000009, 9.99999975e-05
   1110, 0.000349000009, 0.000104999999
   1111, 0.000349000009, 0.000110000001
   1112, 0.000349000009, 0.000115000003
   1113, 0.000349000009, 0.000119999997
   1114, 0.000349000009, 0.000125000006
   1115, 0.000349000009,      0.00013
   1116, 0.000349000009, 0.000134999995
   1117, 0.000349000009, 0.000140000004
   1118, 0.000349000009, 0.000144999998
   1119, 0.000349000009, 0.000150000007
   1120, 0.000349000009, 0.000155000002
   1121, 0.000349000009, 0.000159999996
   1122, 0.000349000009, 0.000165000005
   1123, 0.000349000009, 0.000169999999
   1124, 0.000349000009, 0.000174999994
   1125, 0.000349000009, 0.000180000003
   1126, 0.000349000009, 0.000184999997
   1127, 0.000349000009, 0.000190000006
   1128, 0.000349000009, 0.000195000001
   1129, 0.000347499998, 4.99999987e-06
   1130, 0.000347499998, 9.99999975e-06
   1131, 0.000347499998, 1.49999996e-05
   1132, 0.000347499998, 1.99999995e-05
   1133, 0.000347499998, 2.49999994e-05
   1134, 0.000347499998, 2.99999992e-05
   1135, 0.000347499998, 3.50000009e-05
   1136, 0.000347499998, 3.9999999e-05
   1137, 0.000347499998, 4.50000007e-05
   1138, 0.000347499998, 4.99999987e-05
   1139, 0.000347499998, 5.50000004e-05
   1140, 0.000347499998, 5.99999985e-05
   1141, 0.000347499998, 6.50000002e-05
   1142, 0.000347499998, 7.00000019e-05
   1143, 0.000347499998, 7.50000036e-05
   1144, 0.000347499998, 7.9999998e-05
   1145, 0.000347499998, 8.49999997e-05
   1146, 0.000347499998, 9.00000014e-05
   1147, 0.000347499998, 9.50000031e-05
   1148, 0.000347499998, 9.99999975e-05
   1149, 0.000347499998, 0.000104999999
   1150, 0.000347499998, 0.000110000001
   1151, 0.000347499998, 0.000115000003
   1152, 0.000347499998, 0.000119999997
   1153, 0.000347499998, 0.000125000006
   1154, 0.000347499998,      0.00013
   1155, 0.000347499998, 0.000134999995
   1156, 0.000347499998, 0.000140000004
   1157, 0.000347499998, 0.000144999998
   1158, 0.000347499998, 0.000150000007
   1159, 0.000347499998, 0.000155000002
   1160, 0.000347499998, 0.000159999996
   1161, 0.000347499998, 0.000165000005
   1162, 0.000347499998, 0.000169999999
   1163, 0.000347499998, 0.000174999994
   1164, 0.000347499998, 0.000180000003
   1165, 0.000347499998, 0.000184999997
   1166, 0.000347499998, 0.000190000006
   1167, 0.000347499998, 0.000195000001
   1168, 0.000345999986, 4.99999987e-06
   1169, 0.000345999986, 9.99999975e-06
   1170, 0.000345999986, 1.49999996e-05
   1171, 0.000345999986, 1.99999995e-05
   1172, 0.000345999986, 2.49999994e-05
   1173, 0.000345999986, 2.99999992e-05
   1174, 0.000345999986, 3.50000009e-05
   1175, 0.000345999986, 3.9999999e-05
   1176, 0.000345999986, 4.50000007e-05
   1177, 0.000345999986, 4.99999987e-05
   1178, 0.000345999986, 5.50000004e-05
   1179, 0.000345999986, 5.99999985e-05
   1180, 0.000345999986, 6.50000002e-05
   1181, 0.000345999986, 7.00000019e-05
   1182, 0.000345999986, 7.50000036e-05
   1183, 0.000345999986, 7.9999998e-05
   1184, 0.000345999986, 8.49999997e-05
   1185, 0.000345999986, 9.00000014e-05
   1186, 0.000345999986, 9.50000031e-05
   1187, 0.000345999986, 9.99999975e-05
   1188, 0.000345999986, 0.000104999999
   1189, 0.000345999986, 0.000110000001
   1190, 0.000345999986, 0.000115000003
   1191, 0.000345999986, 0.000119999997
   1192, 0.000345999986, 0.000125000006
   1193, 0.000345999986,      0.00013
   1194, 0.000345999986, 0.000134999995
   1195, 0.000345999986, 0.000140000004
   1196, 0.000345999986, 0.000144999998
   1197, 0.000345999986, 0.000150000007
   1198, 0.000345999986, 0.000155000002
   1199, 0.000345999986, 0.000159999996
   1200, 0.000345999986, 0.000165000005
   1201, 0.000345999986, 0.000169999999
   1202, 0.000345999986, 0.000174999994
   1203, 0.000345999986, 0.000180000003
   1204, 0.000345999986, 0.000184999997
   1205, 0.000345999986, 0.000190000006
   1206, 0.000345999986, 0.000195000001
   1207, 0.000344500004, 4.99999987e-06
   1208, 0.000344500004, 9.99999975e-06
   1209, 0.000344500004, 1.49999996e-05
   1210, 0.000344500004, 1.99999995e-05
   1211, 0.000344500004, 2.49999994e-05
   1212, 0.000344500004, 2.99999992e-05
   1213, 0.000344500004, 3.50000009e-05
   1214, 0.000344500004, 3.9999999e-05
   1215, 0.000344500004, 4.50000007e-05
   1216, 0.000344500004, 4.99999987e-05
   1217, 0.000344500004, 5.50000004e-05
   1218, 0.000344500004, 5.99999985e-05
   1219, 0.000344500004, 6.50000002e-05
   1220, 0.000344500004, 7.00000019e-05
   1221, 0.000344500004, 7.50000036e-05
   1222, 0.000344500004, 7.9999998e-05
   1223, 0.000344500004, 8.49999997e-05
   1224, 0.000344500004, 9.00000014e-05
   1225, 0.000344500004, 9.50000031e-05
   1226, 0.000344500004, 9.99999975e-05
   1227, 0.000344500004, 0.000104999999
   1228, 0.000344500004, 0.000110000001
   1229, 0.000344500004, 0.000115000003
   1230, 0.000344500004, 0.000119999997
   1231, 0.000344500004, 0.000125000006
   1232, 0.000344500004,      0.00013
   1233, 0.000344500004, 0.000134999995
   1234, 0.000344500004, 0.000140000004
   1235, 0.000344500004, 0.000144999998
   1236, 0.000344500004, 0.000150000007
   1237, 0.000344500004, 0.000155000002
   1238, 0.000344500004, 0.000159999996
   1239, 0.000344500004, 0.000165000005
   1240, 0.000344500004, 0.000169999999
   1241, 0.000344500004, 0.000174999994
   1242, 0.000344500004, 0.000180000003
   1243, 0.000344500004, 0.000184999997
   1244, 0.000344500004, 0.000190000006
   1245, 0.000344500004, 0.000195000001
   1246, 0.000342999992, 4.99999987e-06
   1247, 0.000342999992, 9.99999975e-06
   1248, 0.000342999992, 1.49999996e-05
   1249, 0.000342999992, 1.99999995e-05
   1250, 0.000342999992, 2.49999994e-05
   1251, 0.000342999992, 2.99999992e-05
   1252, 0.000342999992, 3.50000009e-05
   1253, 0.000342999992, 3.9999999e-05
   1254, 0.000342999992, 4.50000007e-05
   1255, 0.000342999992, 4.99999987e-05
   1256, 0.000342999992, 5.50000004e-05
   1257, 0.000342999992, 5.99999985e-05
   1258, 0.000342999992, 6.50000002e-05
   1259, 0.000342999992, 7.00000019e-05
   1260, 0.000342999992, 7.50000036e-05
   1261, 0.000342999992, 7.9999998e-05
   1262, 0.000342999992, 8.49999997e-05
   1263, 0.000342999992, 9.00000014e-05
   1264, 0.000342999992, 9.50000031e-05
   1265, 0.000342999992, 9.99999975e-05
   1266, 0.000342999992, 0.000104999999
   1267, 0.000342999992, 0.000110000001
   1268, 0.000342999992, 0.000115000003
   1269, 0.000342999992, 0.000119999997
   1270, 0.000342999992, 0.000125000006
   1271, 0.000342999992,      0.00013
   1272, 0.000342999992, 0.000134999995
   1273, 0.000342999992, 0.000140000004
   1274, 0.000342999992, 0.000144999998
   1275, 0.000342999992, 0.000150000007
   1276, 0.000342999992, 0.000155000002
   1277, 0.000342999992, 0.000159999996
   1278, 0.000342999992, 0.000165000005
   1279, 0.000342999992, 0.000169999999
   1280, 0.000342999992, 0.000174999994
   1281, 0.000342999992, 0.000180000003
   1282, 0.000342999992, 0.000184999997
   1283, 0.000342999992, 0.000190000006
   1284, 0.000342999992, 0.000195000001
   1285, 0.00034150001, 4.99999987e-06
   1286, 0.00034150001, 9.99999975e-06
   1287, 0.00034150001, 1.49999996e-05
   1288, 0.00034150001, 1.99999995e-05
   1289, 0.00034150001, 2.49999994e-05
   1290, 0.00034150001, 2.99999992e-05
   1291, 0.00034150001, 3.50000009e-05
   1292, 0.00034150001, 3.9999999e-05
   1293, 0.00034150001, 4.50000007e-05
   1294, 0.00034150001, 4.99999987e-05
   1295, 0.00034150001, 5.50000004e-05
   1296, 0.00034150001, 5.99999985e-05
   1297, 0.00034150001, 6.50000002e-05
   1298, 0.00034150001, 7.00000019e-05
   1299, 0.00034150001, 7.50000036e-05
   1300, 0.00034150001, 7.9999998e-05
   1301, 0.00034150001, 8.49999997e-05
   1302, 0.00034150001, 9.00000014e-05
   1303, 0.00034150001, 9.50000031e-05
   1304, 0.00034150001, 9.99999975e-05
   1305, 0.00034150001, 0.000104999999
   1306, 0.00034150001, 0.000110000001
   1307, 0.00034150001, 0.000115000003
   1308, 0.00034150001, 0.000119999997
   1309, 0.00034150001, 0.000125000006
   1310, 0.00034150001,      0.00013
   1311, 0.00034150001, 0.000134999995
   1312, 0.00034150001, 0.000140000004
   1313, 0.00034150001, 0.000144999998
   1314, 0.00034150001, 0.000150000007
   1315, 0.00034150001, 0.000155000002
   1316, 0.00034150001, 0.000159999996
   1317, 0.00034150001, 0.000165000005
   1318, 0.00034150001, 0.000169999999
   1319, 0.00034150001, 0.000174999994
   1320, 0.00034150001, 0.000180000003
   1321, 0.00034150001, 0.000184999997
   1322, 0.00034150001, 0.000190000006
   1323, 0.00034150001, 0.000195000001
   1324, 0.000339999999, 4.99999987e-06
   1325, 0.000339999999, 9.99999975e-06
   1326, 0.000339999999, 1.49999996e-05
   1327, 0.000339999999, 1.99999995e-05
   1328, 0.000339999999, 2.49999994e-05
   1329, 0.000339999999, 2.99999992e-05
   1330, 0.000339999999, 3.50000009e-05
   1331, 0.000339999999, 3.9999999e-05
   1332, 0.000339999999, 4.50000007e-05
   1333, 0.000339999999, 4.99999987e-05
   1334, 0.000339999999, 5.50000004e-05
   1335, 0.000339999999, 5.99999985e-05
   1336, 0.000339999999, 6.50000002e-05
   1337, 0.000339999999, 7.00000019e-05
   1338, 0.000339999999, 7.50000036e-05
   1339, 0.000339999999, 7.9999998e-05
   1340, 0.000339999999, 8.49999997e-05
   1341, 0.000339999999, 9.00000014e-05
   1342, 0.000339999999, 9.50000031e-05
   1343, 0.000339999999, 9.99999975e-05
   1344, 0.000339999999, 0.000104999999
   1345, 0.000339999999, 0.000110000001
   1346, 0.000339999999, 0.000115000003
   1347, 0.000339999999, 0.000119999997
   1348, 0.000339999999, 0.000125000006
   1349, 0.000339999999,      0.00013
   1350, 0.000339999999, 0.000134999995
   1351, 0.000339999999, 0.000140000004
   1352, 0.000339999999, 0.000144999998
   1353, 0.000339999999, 0.000150000007
   1354, 0.000339999999, 0.000155000002
   1355, 0.000339999999, 0.000159999996
   1356, 0.000339999999, 0.000165000005
   1357, 0.000339999999, 0.000169999999
   1358, 0.000339999999, 0.000174999994
   1359, 0.000339999999, 0.000180000003
   1360, 0.000339999999, 0.000184999997
   1361, 0.000339999999, 0.000190000006
   1362, 0.000339999999, 0.000195000001
   1363, 0.000338499987, 4.99999987e-06
   1364, 0.000338499987, 9.99999975e-06
   1365, 0.000338499987, 1.49999996e-05
   1366, 0.000338499987, 1.99999995e-05
   1367, 0.000338499987, 2.49999994e-05
   1368, 0.000338499987, 2.99999992e-05
   1369, 0.000338499987, 3.50000009e-05
   1370, 0.000338499987, 3.9999999e-05
   1371, 0.000338499987, 4.50000007e-05
   1372, 0.000338499987, 4.99999987e-05
   1373, 0.000338499987, 5.50000004e-05
   1374, 0.000338499987, 5.99999985e-05
   1375, 0.000338499987, 6.50000002e-05
   1376, 0.000338499987, 7.00000019e-05
   1377, 0.000338499987, 7.50000036e-05
   1378, 0.000338499987, 7.9999998e-05
   1379, 0.000338499987, 8.49999997e-05
   1380, 0.000338499987, 9.00000014e-05
   1381, 0.000338499987, 9.50000031e-05
   1382, 0.000338499987, 9.99999975e-05
   1383, 0.000338499987, 0.000104999999
   1384, 0.000338499987, 0.000110000001
   1385, 0.000338499987, 0.000115000003
   1386, 0.000338499987, 0.000119999997
   1387, 0.000338499987, 0.000125000006
   1388, 0.000338499987,      0.00013
   1389, 0.000338499987, 0.000134999995
   1390, 0.000338499987, 0.000140000004
   1391, 0.000338499987, 0.000144999998
   1392, 0.000338499987, 0.000150000007
   1393, 0.000338499987, 0.000155000002
   1394, 0.000338499987, 0.000159999996
   1395, 0.000338499987, 0.000165000005
   1396, 0.000338499987, 0.000169999999
   1397, 0.000338499987, 0.000174999994
   1398, 0.000338499987, 0.000180000003
   1399, 0.000338499987, 0.000184999997
   1400, 0.000338499987, 0.000190000006
   1401, 0.000338499987, 0.000195000001
   1402, 0.000337000005, 4.99999987e-06
   1403, 0.000337000005, 9.99999975e-06
   1404, 0.000337000005, 1.49999996e-05
   1405, 0.000337000005, 1.99999995e-05
   1406, 0.000337000005, 2.49999994e-05
   1407, 0.000337000005, 2.99999992e-05
   1408, 0.000337000005, 3.50000009e-05
   1409, 0.000337000005, 3.9999999e-05
   1410, 0.000337000005, 4.50000007e-05
   1411, 0.000337000005, 4.99999987e-05
   1412, 0.000337000005, 5.50000004e-05
   1413, 0.000337000005, 5.99999985e-05
   1414, 0.000337000005, 6.50000002e-05
   1415, 0.000337000005, 7.00000019e-05
   1416, 0.000337000005, 7.50000036e-05
   1417, 0.000337000005, 7.9999998e-05
   1418, 0.000337000005, 8.49999997e-05
   1419, 0.000337000005, 9.00000014e-05
   1420, 0.000337000005, 9.50000031e-05
   1421, 0.000337000005, 9.99999975e-05
   1422, 0.000337000005, 0.000104999999
   1423, 0.000337000005, 0.000110000001
   1424, 0.000337000005, 0.000115000003
   1425, 0.000337000005, 0.000119999997
   1426, 0.000337000005, 0.000125000006
   1427, 0.000337000005,      0.00013
   1428, 0.000337000005, 0.000134999995
   1429, 0.000337000005, 0.000140000004
   1430, 0.000337000005, 0.000144999998
   1431, 0.000337000005, 0.000150000007
   1432, 0.000337000005, 0.000155000002
   1433, 0.000337000005, 0.000159999996
   1434, 0.000337000005, 0.000165000005
   1435, 0.000337000005, 0.000169999999
   1436, 0.000337000005, 0.000174999994
   1437, 0.000337000005, 0.000180000003
   1438, 0.000337000005, 0.000184999997
   1439, 0.000337000005, 0.000190000006
   1440, 0.000337000005, 0.000195000001
   1441, 0.000335499994, 4.99999987e-06
   1442, 0.000335499994, 9.99999975e-06
   1443, 0.000335499994, 1.49999996e-05
   1444, 0.000335499994, 1.99999995e-05
   1445, 0.000335499994, 2.49999994e-05
   1446, 0.000335499994, 2.99999992e-05
   1447, 0.000335499994, 3.50000009e-05
   1448, 0.000335499994, 3.9999999e-05
   1449, 0.000335499994, 4.50000007e-05
   1450, 0.000335499994, 4.99999987e-05
   1451, 0.000335499994, 5.50000004e-05
   1452, 0.000335499994, 5.99999985e-05
   1453, 0.000335499994, 6.50000002e-05
   1454, 0.000335499994, 7.00000019e-05
   1455, 0.000335499994, 7.50000036e-05
   1456, 0.000335499994, 7.9999998e-05
   1457, 0.000335499994, 8.49999997e-05
   1458, 0.000335499994, 9.00000014e-05
   1459, 0.000335499994, 9.50000031e-05
   1460, 0.000335499994, 9.99999975e-05
   1461, 0.000335499994, 0.000104999999
   1462, 0.000335499994, 0.000110000001
   1463, 0.000335499994, 0.000115000003
   1464, 0.000335499994, 0.000119999997
   1465, 0.000335499994, 0.000125000006
   1466, 0.000335499994,      0.00013
   1467, 0.000335499994, 0.000134999995
   1468, 0.000335499994, 0.000140000004
   1469, 0.000335499994, 0.000144999998
   1470, 0.000335499994, 0.000150000007
   1471, 0.000335499994, 0.000155000002
   1472, 0.000335499994, 0.000159999996
   1473, 0.000335499994, 0.000165000005
   1474, 0.000335499994, 0.000169999999
   1475, 0.000335499994, 0.000174999994
   1476, 0.000335499994, 0.000180000003
   1477, 0.000335499994, 0.000184999997
   1478, 0.000335499994, 0.000190000006
   1479, 0.000335499994, 0.000195000001
   1480, 0.000334000011, 4.99999987e-06
   1481, 0.000334000011, 9.99999975e-06
   1482, 0.000334000011, 1.49999996e-05
   1483, 0.000334000011, 1.99999995e-05
   1484, 0.000334000011, 2.49999994e-05
   1485, 0.000334000011, 2.99999992e-05
   1486, 0.000334000011, 3.50000009e-05
   1487, 0.000334000011, 3.9999999e-05
   1488, 0.000334000011, 4.50000007e-05
   1489, 0.000334000011, 4.99999987e-05
   1490, 0.000334000011, 5.50000004e-05
   1491, 0.000334000011, 5.99999985e-05
   1492, 0.000334000011, 6.50000002e-05
   1493, 0.000334000011, 7.00000019e-05
   1494, 0.000334000011, 7.50000036e-05
   1495, 0.000334000011, 7.9999998e-05
   1496, 0.000334000011, 8.49999997e-05
   1497, 0.000334000011, 9.00000014e-05
   1498, 0.000334000011, 9.50000031e-05
   1499, 0.000334000011, 9.99999975e-05
   1500, 0.000334000011, 0.000104999999
   1501, 0.000334000011, 0.000110000001
   1502, 0.000334000011, 0.000115000003
   1503, 0.000334000011, 0.000119999997
   1504, 0.000334000011, 0.000125000006
   1505, 0.000334000011,      0.00013
   1506, 0.000334000011, 0.000134999995
   1507, 0.000334000011, 0.000140000004
   1508, 0.000334000011, 0.000144999998
   1509, 0.000334000011, 0.000150000007
   1510, 0.000334000011, 0.000155000002
   1511, 0.000334000011, 0.000159999996
   1512, 0.000334000011, 0.000165000005
   1513, 0.000334000011, 0.000169999999
   1514, 0.000334000011, 0.000174999994
   1515, 0.000334000011, 0.000180000003
   1516, 0.000334000011, 0.000184999997
   1517, 0.000334000011, 0.000190000006
   1518, 0.000334000011, 0.000195000001
   1519,    0.0003325, 4.99999987e-06
   1520,    0.0003325, 9.99999975e-06
   1521,    0.0003325, 1.49999996e-05
   1522,    0.0003325, 1.99999995e-05
   1523,    0.0003325, 2.49999994e-05
   1524,    0.0003325, 2.99999992e-05
   1525,    0.0003325, 3.50000009e-05
   1526,    0.0003325, 3.9999999e-05
   1527,    0.0003325, 4.50000007e-05
   1528,    0.0003325, 4.99999987e-05
   1529,    0.0003325, 5.50000004e-05
   1530,    0.0003325, 5.99999985e-05
   1531,    0.0003325, 6.50000002e-05
   1532,    0.0003325, 7.00000019e-05
   1533,    0.0003325, 7.50000036e-05
   1534,    0.0003325, 7.9999998e-05
   1535,    0.0003325, 8.49999997e-05
   1536,    0.0003325, 9.00000014e-05
   1537,    0.0003325, 9.50000031e-05
   1538,    0.0003325, 9.99999975e-05
   1539,    0.0003325, 0.000104999999
   1540,    0.0003325, 0.000110000001
   1541,    0.0003325, 0.000115000003
   1542,    0.0003325, 0.000119999997
   1543,    0.0003325, 0.000125000006
   1544,    0.0003325,      0.00013
   1545,    0.0003325, 0.000134999995
   1546,    0.0003325, 0.000140000004
   1547,    0.0003325, 0.000144999998
   1548,    0.0003325, 0.000150000007
   1549,    0.0003325, 0.000155000002
   1550,    0.0003325, 0.000159999996
   1551,    0.0003325, 0.000165000005
   1552,    0.0003325, 0.000169999999
   1553,    0.0003325, 0.000174999994
   1554,    0.0003325, 0.000180000003
   1555,    0.0003325, 0.000184999997
   1556,    0.0003325, 0.000190000006
   1557,    0.0003325, 0.000195000001
   1558, 0.000330999988, 4.99999987e-06
   1559, 0.000330999988, 9.99999975e-06
   1560, 0.000330999988, 1.49999996e-05
   1561, 0.000330999988, 1.99999995e-05
   1562, 0.000330999988, 2.49999994e-05
   1563, 0.000330999988, 2.99999992e-05
   1564, 0.000330999988, 3.50000009e-05
   1565, 0.000330999988, 3.9999999e-05
   1566, 0.000330999988, 4.50000007e-05
   1567, 0.000330999988, 4.99999987e-05
   1568, 0.000330999988, 5.50000004e-05
   1569, 0.000330999988, 5.99999985e-05
   1570, 0.000330999988, 6.50000002e-05
   1571, 0.000330999988, 7.00000019e-05
   1572, 0.000330999988, 7.50000036e-05
   1573, 0.000330999988, 7.9999998e-05
   1574, 0.000330999988, 8.49999997e-05
   1575, 0.000330999988, 9.00000014e-05
   1576, 0.000330999988, 9.50000031e-05
   1577, 0.000330999988, 9.99999975e-05
   1578, 0.000330999988, 0.000104999999
   1579, 0.000330999988, 0.000110000001
   1580, 0.000330999988, 0.000115000003
   1581, 0.000330999988, 0.000119999997
   1582, 0.000330999988, 0.000125000006
   1583, 0.000330999988,      0.00013
   1584, 0.000330999988, 0.000134999995
   1585, 0.000330999988, 0.000140000004
   1586, 0.000330999988, 0.000144999998
   1587, 0.000330999988, 0.000150000007
   1588, 0.000330999988, 0.000155000002
   1589, 0.000330999988, 0.000159999996
   1590, 0.000330999988, 0.000165000005
   1591, 0.000330999988, 0.000169999999
   1592, 0.000330999988, 0.000174999994
   1593, 0.000330999988, 0.000180000003
   1594, 0.000330999988, 0.000184999997
   1595, 0.000330999988, 0.000190000006
   1596, 0.000330999988, 0.000195000001
   1597, 0.000329500006, 4.99999987e-06
   1598, 0.000329500006, 9.99999975e-06
   1599, 0.000329500006, 1.49999996e-05
   1600, 0.000329500006, 1.99999995e-05
   1601, 0.000329500006, 2.49999994e-05
   1602, 0.000329500006, 2.99999992e-05
   1603, 0.000329500006, 3.50000009e-05
   1604, 0.000329500006, 3.9999999e-05
   1605, 0.000329500006, 4.50000007e-05
   1606, 0.000329500006, 4.99999987e-05
   1607, 0.000329500006, 5.50000004e-05
   1608, 0.000329500006, 5.99999985e-05
   1609, 0.000329500006, 6.50000002e-05
   1610, 0.000329500006, 7.00000019e-05
   1611, 0.000329500006, 7.50000036e-05
   1612, 0.000329500006, 7.9999998e-05
   1613, 0.000329500006, 8.49999997e-05
   1614, 0.000329500006, 9.00000014e-05
   1615, 0.000329500006, 9.50000031e-05
   1616, 0.000329500006, 9.99999975e-05
   1617, 0.000329500006, 0.000104999999
   1618, 0.000329500006, 0.000110000001
   1619, 0.000329500006, 0.000115000003
   1620, 0.000329500006, 0.000119999997
   1621, 0.000329500006, 0.000125000006
   1622, 0.000329500006,      0.00013
   1623, 0.000329500006, 0.000134999995
   1624, 0.000329500006, 0.000140000004
   1625, 0.000329500006, 0.000144999998
   1626, 0.000329500006, 0.000150000007
   1627, 0.000329500006, 0.000155000002
   1628, 0.000329500006, 0.000159999996
   1629, 0.000329500006, 0.000165000005
   1630, 0.000329500006, 0.000169999999
   1631, 0.000329500006, 0.000174999994
   1632, 0.000329500006, 0.000180000003
   1633, 0.000329500006, 0.000184999997
   1634, 0.000329500006, 0.000190000006
   1635, 0.000329500006, 0.000195000001
   1636, 0.000327999995, 4.99999987e-06
   1637, 0.000327999995, 9.99999975e-06
   1638, 0.000327999995, 1.49999996e-05
   1639, 0.000327999995, 1.99999995e-05
   1640, 0.000327999995, 2.49999994e-05
   1641, 0.000327999995, 2.99999992e-05
   1642, 0.000327999995, 3.50000009e-05
   1643, 0.000327999995, 3.9999999e-05
   1644, 0.000327999995, 4.50000007e-05
   1645, 0.000327999995, 4.99999987e-05
   1646, 0.000327999995, 5.50000004e-05
   1647, 0.000327999995, 5.99999985e-05
   1648, 0.000327999995, 6.50000002e-05
   1649, 0.000327999995, 7.00000019e-05
   1650, 0.000327999995, 7.50000036e-05
   1651, 0.000327999995, 7.9999998e-05
   1652, 0.000327999995, 8.49999997e-05
   1653, 0.000327999995, 9.00000014e-05
   1654, 0.000327999995, 9.50000031e-05
   1655, 0.000327999995, 9.99999975e-05
   1656, 0.000327999995, 0.000104999999
   1657, 0.000327999995, 0.000110000001
   1658, 0.000327999995, 0.000115000003
   1659, 0.000327999995, 0.000119999997
   1660, 0.000327999995, 0.000125000006
   1661, 0.000327999995,      0.00013
   1662, 0.000327999995, 0.000134999995
   1663, 0.000327999995, 0.000140000004
   1664, 0.000327999995, 0.000144999998
   1665, 0.000327999995, 0.000150000007
   1666, 0.000327999995, 0.000155000002
   1667, 0.000327999995, 0.000159999996
   1668, 0.000327999995, 0.000165000005
   1669, 0.000327999995, 0.000169999999
   1670, 0.000327999995, 0.000174999994
   1671, 0.000327999995, 0.000180000003
   1672, 0.000327999995, 0.000184999997
   1673, 0.000327999995, 0.000190000006
   1674, 0.000327999995, 0.000195000001
   1675, 0.000326500012, 4.99999987e-06
   1676, 0.000326500012, 9.99999975e-06
   1677, 0.000326500012, 1.49999996e-05
   1678, 0.000326500012, 1.99999995e-05
   1679, 0.000326500012, 2.49999994e-05
   1680, 0.000326500012, 2.99999992e-05
   1681, 0.000326500012, 3.50000009e-05
   1682, 0.000326500012, 3.9999999e-05
   1683, 0.000326500012, 4.50000007e-05
   1684, 0.000326500012, 4.99999987e-05
   1685, 0.000326500012, 5.50000004e-05
   1686, 0.000326500012, 5.99999985e-05
   1687, 0.000326500012, 6.50000002e-05
   1688, 0.000326500012, 7.00000019e-05
   1689, 0.000326500012, 7.50000036e-05
   1690, 0.000326500012, 7.9999998e-05
   1691, 0.000326500012, 8.49999997e-05
   1692, 0.000326500012, 9.00000014e-05
   1693, 0.000326500012, 9.50000031e-05
   1694, 0.000326500012, 9.99999975e-05
   1695, 0.000326500012, 0.000104999999
   1696, 0.000326500012, 0.000110000001
   1697, 0.000326500012, 0.000115000003
   1698, 0.000326500012, 0.000119999997
   1699, 0.000326500012, 0.000125000006
   1700, 0.000326500012,      0.00013
   1701, 0.000326500012, 0.000134999995
   1702, 0.000326500012, 0.000140000004
   1703, 0.000326500012, 0.000144999998
   1704, 0.000326500012, 0.000150000007
   1705, 0.000326500012, 0.000155000002
   1706, 0.000326500012, 0.000159999996
   1707, 0.000326500012, 0.000165000005
   1708, 0.000326500012, 0.000169999999
   1709, 0.000326500012, 0.000174999994
   1710, 0.000326500012, 0.000180000003
   1711, 0.000326500012, 0.000184999997
   1712, 0.000326500012, 0.000190000006
   1713, 0.000326500012, 0.000195000001
   1714, 0.000325000001, 4.99999987e-06
   1715, 0.000325000001, 9.99999975e-06
   1716, 0.000325000001, 1.49999996e-05
   1717, 0.000325000001, 1.99999995e-05
   1718, 0.000325000001, 2.49999994e-05
   1719, 0.000325000001, 2.99999992e-05
   1720, 0.000325000001, 3.50000009e-05
   1721, 0.000325000001, 3.9999999e-05
   1722, 0.000325000001, 4.50000007e-05
   1723, 0.000325000001, 4.99999987e-05
   1724, 0.000325000001, 5.50000004e-05
   1725, 0.000325000001, 5.99999985e-05
   1726, 0.000325000001, 6.50000002e-05
   1727, 0.000325000001, 7.00000019e-05
   1728, 0.000325000001, 7.50000036e-05
   1729, 0.000325000001, 7.9999998e-05
   1730, 0.000325000001, 8.49999997e-05
   1731, 0.000325000001, 9.00000014e-05
   1732, 0.000325000001, 9.50000031e-05
   1733, 0.000325000001, 9.99999975e-05
   1734, 0.000325000001, 0.000104999999
   1735, 0.000325000001, 0.000110000001
   1736, 0.000325000001, 0.000115000003
   1737, 0.000325000001, 0.000119999997
   1738, 0.000325000001, 0.000125000006
   1739, 0.000325000001,      0.00013
   1740, 0.000325000001, 0.000134999995
   1741, 0.000325000001, 0.000140000004
   1742, 0.000325000001, 0.000144999998
   1743, 0.000325000001, 0.000150000007
   1744, 0.000325000001, 0.000155000002
   1745, 0.000325000001, 0.000159999996
   1746, 0.000325000001, 0.000165000005
   1747, 0.000325000001, 0.000169999999
   1748, 0.000325000001, 0.000174999994
   1749, 0.000325000001, 0.000180000003
   1750, 0.000325000001, 0.000184999997
   1751, 0.000325000001, 0.000190000006
   1752, 0.000325000001, 0.000195000001
   1753, 0.000323499989, 4.99999987e-06
   1754, 0.000323499989, 9.99999975e-06
   1755, 0.000323499989, 1.49999996e-05
   1756, 0.000323499989, 1.99999995e-05
   1757, 0.000323499989, 2.49999994e-05
   1758, 0.000323499989, 2.99999992e-05
   1759, 0.000323499989, 3.50000009e-05
   1760, 0.000323499989, 3.9999999e-05
   1761, 0.000323499989, 4.50000007e-05
   1762, 0.000323499989, 4.99999987e-05
   1763, 0.000323499989, 5.50000004e-05
   1764, 0.000323499989, 5.99999985e-05
   1765, 0.000323499989, 6.50000002e-05
   1766, 0.000323499989, 7.00000019e-05
   1767, 0.000323499989, 7.50000036e-05
   1768, 0.000323499989, 7.9999998e-05
   1769, 0.000323499989, 8.49999997e-05
   1770, 0.000323499989, 9.00000014e-05
   1771, 0.000323499989, 9.50000031e-05
   1772, 0.000323499989, 9.99999975e-05
   1773, 0.000323499989, 0.000104999999
   1774, 0.000323499989, 0.000110000001
   1775, 0.000323499989, 0.000115000003
   1776, 0.000323499989, 0.000119999997
   1777, 0.000323499989, 0.000125000006
   1778, 0.000323499989,      0.00013
   1779, 0.000323499989, 0.000134999995
   1780, 0.000323499989, 0.000140000004
   1781, 0.000323499989, 0.000144999998
   1782, 0.000323499989, 0.000150000007
   1783, 0.000323499989, 0.000155000002
   1784, 0.000323499989, 0.000159999996
   1785, 0.000323499989, 0.000165000005
   1786, 0.000323499989, 0.000169999999
   1787, 0.000323499989, 0.000174999994
   1788, 0.000323499989, 0.000180000003
   1789, 0.000323499989, 0.000184999997
   1790, 0.000323499989, 0.000190000006
   1791, 0.000323499989, 0.000195000001
   1792, 0.000322000007, 4.99999987e-06
   1793, 0.000322000007, 9.99999975e-06
   1794, 0.000322000007, 1.49999996e-05
   1795, 0.000322000007, 1.99999995e-05
   1796, 0.000322000007, 2.49999994e-05
   1797, 0.000322000007, 2.99999992e-05
   1798, 0.000322000007, 3.50000009e-05
   1799, 0.000322000007, 3.9999999e-05
   1800, 0.000322000007, 4.50000007e-05
   1801, 0.000322000007, 4.99999987e-05
   1802, 0.000322000007, 5.50000004e-05
   1803, 0.000322000007, 5.99999985e-05
   1804, 0.000322000007, 6.50000002e-05
   1805, 0.000322000007, 7.00000019e-05
   1806, 0.000322000007, 7.50000036e-05
   1807, 0.000322000007, 7.9999998e-05
   1808, 0.000322000007, 8.49999997e-05
   1809, 0.000322000007, 9.00000014e-05
   1810, 0.000322000007, 9.50000031e-05
   1811, 0.000322000007, 9.99999975e-05
   1812, 0.000322000007, 0.000104999999
   1813, 0.000322000007, 0.000110000001
   1814, 0.000322000007, 0.000115000003
   1815, 0.000322000007, 0.000119999997
   1816, 0.000322000007, 0.000125000006
   1817, 0.000322000007,      0.00013
   1818, 0.000322000007, 0.000134999995
   1819, 0.000322000007, 0.000140000004
   1820, 0.000322000007, 0.000144999998
   1821, 0.000322000007, 0.000150000007
   1822, 0.000322000007, 0.000155000002
   1823, 0.000322000007, 0.000159999996
   1824, 0.000322000007, 0.000165000005
   1825, 0.000322000007, 0.000169999999
   1826, 0.000322000007, 0.000174999994
   1827, 0.000322000007, 0.000180000003
   1828, 0.000322000007, 0.000184999997
   1829, 0.000322000007, 0.000190000006
   1830, 0.000322000007, 0.000195000001
   1831, 0.000320499996, 4.99999987e-06
   1832, 0.000320499996, 9.99999975e-06
   1833, 0.000320499996, 1.49999996e-05
   1834, 0.000320499996, 1.99999995e-05
   1835, 0.000320499996, 2.49999994e-05
   1836, 0.000320499996, 2.99999992e-05
   1837, 0.000320499996, 3.50000009e-05
   1838, 0.000320499996, 3.9999999e-05
   1839, 0.000320499996, 4.50000007e-05
   1840, 0.000320499996, 4.99999987e-05
   1841, 0.000320499996, 5.50000004e-05
   1842, 0.000320499996, 5.99999985e-05
   1843, 0.000320499996, 6.50000002e-05
   1844, 0.000320499996, 7.00000019e-05
   1845, 0.000320499996, 7.50000036e-05
   1846, 0.000320499996, 7.9999998e-05
   1847, 0.000320499996, 8.49999997e-05
   1848, 0.000320499996, 9.00000014e-05
   1849, 0.000320499996, 9.50000031e-05
   1850, 0.000320499996, 9.99999975e-05
   1851, 0.000320499996, 0.000104999999
   1852, 0.000320499996, 0.000110000001
   1853, 0.000320499996, 0.000115000003
   1854, 0.000320499996, 0.000119999997
   1855, 0.000320499996, 0.000125000006
   1856, 0.000320499996,      0.00013
   1857, 0.000320499996, 0.000134999995
   1858, 0.000320499996, 0.000140000004
   1859, 0.000320499996, 0.000144999998
   1860, 0.000320499996, 0.000150000007
   1861, 0.000320499996, 0.000155000002
   1862, 0.000320499996, 0.000159999996
   1863, 0.000320499996, 0.000165000005
   1864, 0.000320499996, 0.000169999999
   1865, 0.000320499996, 0.000174999994
   1866, 0.000320499996, 0.000180000003
   1867, 0.000320499996, 0.000184999997
   1868, 0.000320499996, 0.000190000006
   1869, 0.000320499996, 0.000195000001
   1870, 0.000319000013, 4.99999987e-06
   1871, 0.000319000013, 9.99999975e-06
   1872, 0.000319000013, 1.49999996e-05
   1873, 0.000319000013, 1.99999995e-05
   1874, 0.000319000013, 2.49999994e-05
   1875, 0.000319000013, 2.99999992e-05
   1876, 0.000319000013, 3.50000009e-05
   1877, 0.000319000013, 3.9999999e-05
   1878, 0.000319000013, 4.50000007e-05
   1879, 0.000319000013, 4.99999987e-05
   1880, 0.000319000013, 5.50000004e-05
   1881, 0.000319000013, 5.99999985e-05
   1882, 0.000319000013, 6.50000002e-05
   1883, 0.000319000013, 7.00000019e-05
   1884, 0.000319000013, 7.50000036e-05
   1885, 0.000319000013, 7.9999998e-05
   1886, 0.000319000013, 8.49999997e-05
   1887, 0.000319000013, 9.00000014e-05
   1888, 0.000319000013, 9.50000031e-05
   1889, 0.000319000013, 9.99999975e-05
   1890, 0.000319000013, 0.000104999999
   1891, 0.000319000013, 0.000110000001
   1892, 0.000319000013, 0.000115000003
   1893, 0.000319000013, 0.000119999997
   1894, 0.000319000013, 0.000125000006
   1895, 0.000319000013,      0.00013
   1896, 0.000319000013, 0.000134999995
   1897, 0.000319000013, 0.000140000004
   1898, 0.000319000013, 0.000144999998
   1899, 0.000319000013, 0.000150000007
   1900, 0.000319000013, 0.000155000002
   1901, 0.000319000013, 0.000159999996
   1902, 0.000319000013, 0.000165000005
   1903, 0.000319000013, 0.000169999999
   1904, 0.000319000013, 0.000174999994
   1905, 0.000319000013, 0.000180000003
   1906, 0.000319000013, 0.000184999997
   1907, 0.000319000013, 0.000190000006
   1908, 0.000319000013, 0.000195000001
   1909, 0.000317500002, 4.99999987e-06
   1910, 0.000317500002, 9.99999975e-06
   1911, 0.000317500002, 1.49999996e-05
   1912, 0.000317500002, 1.99999995e-05
   1913, 0.000317500002, 2.49999994e-05
   1914, 0.000317500002, 2.99999992e-05
   1915, 0.000317500002, 3.50000009e-05
   1916, 0.000317500002, 3.9999999e-05
   1917, 0.000317500002, 4.50000007e-05
   1918, 0.000317500002, 4.99999987e-05
   1919, 0.000317500002, 5.50000004e-05
   1920, 0.000317500002, 5.99999985e-05
   1921, 0.000317500002, 6.50000002e-05
   1922, 0.000317500002, 7.00000019e-05
   1923, 0.000317500002, 7.50000036e-05
   1924, 0.000317500002, 7.9999998e-05
   1925, 0.000317500002, 8.49999997e-05
   1926, 0.000317500002, 9.00000014e-05
   1927, 0.000317500002, 9.50000031e-05
   1928, 0.000317500002, 9.99999975e-05
   1929, 0.000317500002, 0.000104999999
   1930, 0.000317500002, 0.000110000001
   1931, 0.000317500002, 0.000115000003
   1932, 0.000317500002, 0.000119999997
   1933, 0.000317500002, 0.000125000006
   1934, 0.000317500002,      0.00013
   1935, 0.000317500002, 0.000134999995
   1936, 0.000317500002, 0.000140000004
   1937, 0.000317500002, 0.000144999998
   1938, 0.000317500002, 0.000150000007
   1939, 0.000317500002, 0.000155000002
   1940, 0.000317500002, 0.000159999996
   1941, 0.000317500002, 0.000165000005
   1942, 0.000317500002, 0.000169999999
   1943, 0.000317500002, 0.000174999994
   1944, 0.000317500002, 0.000180000003
   1945, 0.000317500002, 0.000184999997
   1946, 0.000317500002, 0.000190000006
   1947, 0.000317500002, 0.000195000001
   1948, 0.000315999991, 4.99999987e-06
   1949, 0.000315999991, 9.99999975e-06
   1950, 0.000315999991, 1.49999996e-05
   1951, 0.000315999991, 1.99999995e-05
   1952, 0.000315999991, 2.49999994e-05
   1953, 0.000315999991, 2.99999992e-05
   1954, 0.000315999991, 3.50000009e-05
   1955, 0.000315999991, 3.9999999e-05
   1956, 0.000315999991, 4.50000007e-05
   1957, 0.000315999991, 4.99999987e-05
   1958, 0.000315999991, 5.50000004e-05
   1959, 0.000315999991, 5.99999985e-05
   1960, 0.000315999991, 6.50000002e-05
   1961, 0.000315999991, 7.00000019e-05
   1962, 0.000315999991, 7.50000036e-05
   1963, 0.000315999991, 7.9999998e-05
   1964, 0.000315999991, 8.49999997e-05
   1965, 0.000315999991, 9.00000014e-05
   1966, 0.000315999991, 9.50000031e-05
   1967, 0.000315999991, 9.99999975e-05
   1968, 0.000315999991, 0.000104999999
   1969, 0.000315999991, 0.000110000001
   1970, 0.000315999991, 0.000115000003
   1971, 0.000315999991, 0.000119999997
   1972, 0.000315999991, 0.000125000006
   1973, 0.000315999991,      0.00013
   1974, 0.000315999991, 0.000134999995
   1975, 0.000315999991, 0.000140000004
   1976, 0.000315999991, 0.000144999998
   1977, 0.000315999991, 0.000150000007
   1978, 0.000315999991, 0.000155000002
   1979, 0.000315999991, 0.000159999996
   1980, 0.000315999991, 0.000165000005
   1981, 0.000315999991, 0.000169999999
   1982, 0.000315999991, 0.000174999994
   1983, 0.000315999991, 0.000180000003
   1984, 0.000315999991, 0.000184999997
   1985, 0.000315999991, 0.000190000006
   1986, 0.000315999991, 0.000195000001
   1987, 0.000314500008, 4.99999987e-06
   1988, 0.000314500008, 9.99999975e-06
   1989, 0.000314500008, 1.49999996e-05
   1990, 0.000314500008, 1.99999995e-05
   1991, 0.000314500008, 2.49999994e-05
   1992, 0.000314500008, 2.99999992e-05
   1993, 0.000314500008, 3.50000009e-05
   1994, 0.000314500008, 3.9999999e-05
   1995, 0.000314500008, 4.50000007e-05
   1996, 0.000314500008, 4.99999987e-05
   1997, 0.000314500008, 5.50000004e-05
   1998, 0.000314500008, 5.99999985e-05
   1999, 0.000314500008, 6.50000002e-05
   2000, 0.000314500008, 7.00000019e-05
   2001, 0.000314500008, 7.50000036e-05
   2002, 0.000314500008, 7.9999998e-05
   2003, 0.000314500008, 8.49999997e-05
   2004, 0.000314500008, 9.00000014e-05
   2005, 0.000314500008, 9.50000031e-05
   2006, 0.000314500008, 9.99999975e-05
   2007, 0.000314500008, 0.000104999999
   2008, 0.000314500008, 0.000110000001
   2009, 0.000314500008, 0.000115000003
   2010, 0.000314500008, 0.000119999997
   2011, 0.000314500008, 0.000125000006
   2012, 0.000314500008,      0.00013
   2013, 0.000314500008, 0.000134999995
   2014, 0.000314500008, 0.000140000004
   2015, 0.000314500008, 0.000144999998
   2016, 0.000314500008, 0.000150000007
   2017, 0.000314500008, 0.000155000002
   2018, 0.000314500008, 0.000159999996
   2019, 0.000314500008, 0.000165000005
   2020, 0.000314500008, 0.000169999999
   2021, 0.000314500008, 0.000174999994
   2022, 0.000314500008, 0.000180000003
   2023, 0.000314500008, 0.000184999997
   2024, 0.000314500008, 0.000190000006
   2025, 0.000314500008, 0.000195000001
   2026, 0.000312999997, 4.99999987e-06
   2027, 0.000312999997, 9.99999975e-06
   2028, 0.000312999997, 1.49999996e-05
   2029, 0.000312999997, 1.99999995e-05
   2030, 0.000312999997, 2.49999994e-05
   2031, 0.000312999997, 2.99999992e-05
   2032, 0.000312999997, 3.50000009e-05
   2033, 0.000312999997, 3.9999999e-05
   2034, 0.000312999997, 4.50000007e-05
   2035, 0.000312999997, 4.99999987e-05
   2036, 0.000312999997, 5.50000004e-05
   2037, 0.000312999997, 5.99999985e-05
   2038, 0.000312999997, 6.50000002e-05
   2039, 0.000312999997, 7.00000019e-05
   2040, 0.000312999997, 7.50000036e-05
   2041, 0.000312999997, 7.9999998e-05
   2042, 0.000312999997, 8.49999997e-05
   2043, 0.000312999997, 9.00000014e-05
   2044, 0.000312999997, 9.50000031e-05
   2045, 0.000312999997, 9.99999975e-05
   2046, 0.000312999997, 0.000104999999
   2047, 0.000312999997, 0.000110000001
   2048, 0.000312999997, 0.000115000003
   2049, 0.000312999997, 0.000119999997
   2050, 0.000312999997, 0.000125000006
   2051, 0.000312999997,      0.00013
   2052, 0.000312999997, 0.000134999995
   2053, 0.000312999997, 0.000140000004
   2054, 0.000312999997, 0.000144999998
   2055, 0.000312999997, 0.000150000007
   2056, 0.000312999997, 0.000155000002
   2057, 0.000312999997, 0.000159999996
   2058, 0.000312999997, 0.000165000005
   2059, 0.000312999997, 0.000169999999
   2060, 0.000312999997, 0.000174999994
   2061, 0.000312999997, 0.000180000003
   2062, 0.000312999997, 0.000184999997
   2063, 0.000312999997, 0.000190000006
   2064, 0.000312999997, 0.000195000001
   2065, 0.000311500015, 4.99999987e-06
   2066, 0.000311500015, 9.99999975e-06
   2067, 0.000311500015, 1.49999996e-05
   2068, 0.000311500015, 1.99999995e-05
   2069, 0.000311500015, 2.49999994e-05
   2070, 0.000311500015, 2.99999992e-05
   2071, 0.000311500015, 3.50000009e-05
   2072, 0.000311500015, 3.9999999e-05
   2073, 0.000311500015, 4.50000007e-05
   2074, 0.000311500015, 4.99999987e-05
   2075, 0.000311500015, 5.50000004e-05
   2076, 0.000311500015, 5.99999985e-05
   2077, 0.000311500015, 6.50000002e-05
   2078, 0.000311500015, 7.00000019e-05
   2079, 0.000311500015, 7.50000036e-05
   2080, 0.000311500015, 7.9999998e-05
   2081, 0.000311500015, 8.49999997e-05
   2082, 0.000311500015, 9.00000014e-05
   2083, 0.000311500015, 9.50000031e-05
   2084, 0.000311500015, 9.99999975e-05
   2085, 0.000311500015, 0.000104999999
   2086, 0.000311500015, 0.000110000001
   2087, 0.000311500015, 0.000115000003
   2088, 0.000311500015, 0.000119999997
   2089, 0.000311500015, 0.000125000006
   2090, 0.000311500015,      0.00013
   2091, 0.000311500015, 0.000134999995
   2092, 0.000311500015, 0.000140000004
   2093, 0.000311500015, 0.000144999998
   2094, 0.000311500015, 0.000150000007
   2095, 0.000311500015, 0.000155000002
   2096, 0.000311500015, 0.000159999996
   2097, 0.000311500015, 0.000165000005
   2098, 0.000311500015, 0.000169999999
   2099, 0.000311500015, 0.000174999994
   2100, 0.000311500015, 0.000180000003
   2101, 0.000311500015, 0.000184999997
   2102, 0.000311500015, 0.000190000006
   2103, 0.000311500015, 0.000195000001
   2104, 0.000310000003, 4.99999987e-06
   2105, 0.000310000003, 9.99999975e-06
   2106, 0.000310000003, 1.49999996e-05
   2107, 0.000310000003, 1.99999995e-05
   2108, 0.000310000003, 2.49999994e-05
   2109, 0.000310000003, 2.99999992e-05
   2110, 0.000310000003, 3.50000009e-05
   2111, 0.000310000003, 3.9999999e-05
   2112, 0.000310000003, 4.50000007e-05
   2113, 0.000310000003, 4.99999987e-05
   2114, 0.000310000003, 5.50000004e-05
   2115, 0.000310000003, 5.99999985e-05
   2116, 0.000310000003, 6.50000002e-05
   2117, 0.000310000003, 7.00000019e-05
   2118, 0.000310000003, 7.50000036e-05
   2119, 0.000310000003, 7.9999998e-05
   2120, 0.000310000003, 8.49999997e-05
   2121, 0.000310000003, 9.00000014e-05
   2122, 0.000310000003, 9.50000031e-05
   2123, 0.000310000003, 9.99999975e-05
   2124, 0.000310000003, 0.000104999999
   2125, 0.000310000003, 0.000110000001
   2126, 0.000310000003, 0.000115000003
   2127, 0.000310000003, 0.000119999997
   2128, 0.000310000003, 0.000125000006
   2129, 0.000310000003,      0.00013
   2130, 0.000310000003, 0.000134999995
   2131, 0.000310000003, 0.000140000004
   2132, 0.000310000003, 0.000144999998
   2133, 0.000310000003, 0.000150000007
   2134, 0.000310000003, 0.000155000002
   2135, 0.000310000003, 0.000159999996
   2136, 0.000310000003, 0.000165000005
   2137, 0.000310000003, 0.000169999999
   2138, 0.000310000003, 0.000174999994
   2139, 0.000310000003, 0.000180000003
   2140, 0.000310000003, 0.000184999997
   2141, 0.000310000003, 0.000190000006
   2142, 0.000310000003, 0.000195000001
   2143, 0.000308499992, 4.99999987e-06
   2144, 0.000308499992, 9.99999975e-06
   2145, 0.000308499992, 1.49999996e-05
   2146, 0.000308499992, 1.99999995e-05
   2147, 0.000308499992, 2.49999994e-05
   2148, 0.000308499992, 2.99999992e-05
   2149, 0.000308499992, 3.50000009e-05
   2150, 0.000308499992, 3.9999999e-05
   2151, 0.000308499992, 4.50000007e-05
   2152, 0.000308499992, 4.99999987e-05
   2153, 0.000308499992, 5.50000004e-05
   2154, 0.000308499992, 5.99999985e-05
   2155, 0.000308499992, 6.50000002e-05
   2156, 0.000308499992, 7.00000019e-05
   2157, 0.000308499992, 7.50000036e-05
   2158, 0.000308499992, 7.9999998e-05
   2159, 0.000308499992, 8.49999997e-05
   2160, 0.000308499992, 9.00000014e-05
   2161, 0.000308499992, 9.50000031e-05
   2162, 0.000308499992, 9.99999975e-05
   2163, 0.000308499992, 0.000104999999
   2164, 0.000308499992, 0.000110000001
   2165, 0.000308499992, 0.000115000003
   2166, 0.000308499992, 0.000119999997
   2167, 0.000308499992, 0.000125000006
   2168, 0.000308499992,      0.00013
   2169, 0.000308499992, 0.000134999995
   2170, 0.000308499992, 0.000140000004
   2171, 0.000308499992, 0.000144999998
   2172, 0.000308499992, 0.000150000007
   2173, 0.000308499992, 0.000155000002
   2174, 0.000308499992, 0.000159999996
   2175, 0.000308499992, 0.000165000005
   2176, 0.000308499992, 0.000169999999
   2177, 0.000308499992, 0.000174999994
   2178, 0.000308499992, 0.000180000003
   2179, 0.000308499992, 0.000184999997
   2180, 0.000308499992, 0.000190000006
   2181, 0.000308499992, 0.000195000001
   2182, 0.000307000009, 4.99999987e-06
   2183, 0.000307000009, 9.99999975e-06
   2184, 0.000307000009, 1.49999996e-05
   2185, 0.000307000009, 1.99999995e-05
   2186, 0.000307000009, 2.49999994e-05
   2187, 0.000307000009, 2.99999992e-05
   2188, 0.000307000009, 3.50000009e-05
   2189, 0.000307000009, 3.9999999e-05
   2190, 0.000307000009, 4.50000007e-05
   2191, 0.000307000009, 4.99999987e-05
   2192, 0.000307000009, 5.50000004e-05
   2193, 0.000307000009, 5.99999985e-05
   2194, 0.000307000009, 6.50000002e-05
   2195, 0.000307000009, 7.00000019e-05
   2196, 0.000307000009, 7.50000036e-05
   2197, 0.000307000009, 7.9999998e-05
   2198, 0.000307000009, 8.49999997e-05
   2199, 0.000307000009, 9.00000014e-05
   2200, 0.000307000009, 9.50000031e-05
   2201, 0.000307000009, 9.99999975e-05
   2202, 0.000307000009, 0.000104999999
   2203, 0.000307000009, 0.000110000001
   2204, 0.000307000009, 0.000115000003
   2205, 0.000307000009, 0.000119999997
   2206, 0.000307000009, 0.000125000006
   2207, 0.000307000009,      0.00013
   2208, 0.000307000009, 0.000134999995
   2209, 0.000307000009, 0.000140000004
   2210, 0.000307000009, 0.000144999998
   2211, 0.000307000009, 0.000150000007
   2212, 0.000307000009, 0.000155000002
   2213, 0.000307000009, 0.000159999996
   2214, 0.000307000009, 0.000165000005
   2215, 0.000307000009, 0.000169999999
   2216, 0.000307000009, 0.000174999994
   2217, 0.000307000009, 0.000180000003
   2218, 0.000307000009, 0.000184999997
   2219, 0.000307000009, 0.000190000006
   2220, 0.000307000009, 0.000195000001
   2221, 0.000305499998, 4.99999987e-06
   2222, 0.000305499998, 9.99999975e-06
   2223, 0.000305499998, 1.49999996e-05
   2224, 0.000305499998, 1.99999995e-05
   2225, 0.000305499998, 2.49999994e-05
   2226, 0.000305499998, 2.99999992e-05
   2227, 0.000305499998, 3.50000009e-05
   2228, 0.000305499998, 3.9999999e-05
   2229, 0.000305499998, 4.50000007e-05
   2230, 0.000305499998, 4.99999987e-05
   2231, 0.000305499998, 5.50000004e-05
   2232, 0.000305499998, 5.99999985e-05
   2233, 0.000305499998, 6.50000002e-05
   2234, 0.000305499998, 7.00000019e-05
   2235, 0.000305499998, 7.50000036e-05
   2236, 0.000305499998, 7.9999998e-05
   2237, 0.000305499998, 8.49999997e-05
   2238, 0.000305499998, 9.00000014e-05
   2239, 0.000305499998, 9.50000031e-05
   2240, 0.000305499998, 9.99999975e-05
   2241, 0.000305499998, 0.000104999999
   2242, 0.000305499998, 0.000110000001
   2243, 0.000305499998, 0.000115000003
   2244, 0.000305499998, 0.000119999997
   2245, 0.000305499998, 0.000125000006
   2246, 0.000305499998,      0.00013
   2247, 0.000305499998, 0.000134999995
   2248, 0.000305499998, 0.000140000004
   2249, 0.000305499998, 0.000144999998
   2250, 0.000305499998, 0.000150000007
   2251, 0.000305499998, 0.000155000002
   2252, 0.000305499998, 0.000159999996
   2253, 0.000305499998, 0.000165000005
   2254, 0.000305499998, 0.000169999999
   2255, 0.000305499998, 0.000174999994
   2256, 0.000305499998, 0.000180000003
   2257, 0.000305499998, 0.000184999997
   2258, 0.000305499998, 0.000190000006
   2259, 0.000305499998, 0.000195000001
   2260, 0.000303999986, 4.99999987e-06
   2261, 0.000303999986, 9.99999975e-06
   2262, 0.000303999986, 1.49999996e-05
   2263, 0.000303999986, 1.99999995e-05
   2264, 0.000303999986, 2.49999994e-05
   2265, 0.000303999986, 2.99999992e-05
   2266, 0.000303999986, 3.50000009e-05
   2267, 0.000303999986, 3.9999999e-05
   2268, 0.000303999986, 4.50000007e-05
   2269, 0.000303999986, 4.99999987e-05
   2270, 0.000303999986, 5.50000004e-05
   2271, 0.000303999986, 5.99999985e-05
   2272, 0.000303999986, 6.50000002e-05
   2273, 0.000303999986, 7.00000019e-05
   2274, 0.000303999986, 7.50000036e-05
   2275, 0.000303999986, 7.9999998e-05
   2276, 0.000303999986, 8.49999997e-05
   2277, 0.000303999986, 9.00000014e-05
   2278, 0.000303999986, 9.50000031e-05
   2279, 0.000303999986, 9.99999975e-05
   2280, 0.000303999986, 0.000104999999
   2281, 0.000303999986, 0.000110000001
   2282, 0.000303999986, 0.000115000003
   2283, 0.000303999986, 0.000119999997
   2284, 0.000303999986, 0.000125000006
   2285, 0.000303999986,      0.00013
   2286, 0.000303999986, 0.000134999995
   2287, 0.000303999986, 0.000140000004
   2288, 0.000303999986, 0.000144999998
   2289, 0.000303999986, 0.000150000007
   2290, 0.000303999986, 0.000155000002
   2291, 0.000303999986, 0.000159999996
   2292, 0.000303999986, 0.000165000005
   2293, 0.000303999986, 0.000169999999
   2294, 0.000303999986, 0.000174999994
   2295, 0.000303999986, 0.000180000003
   2296, 0.000303999986, 0.000184999997
   2297, 0.000303999986, 0.000190000006
   2298, 0.000303999986, 0.000195000001
   2299, 0.000302500004, 4.99999987e-06
   2300, 0.000302500004, 9.99999975e-06
   2301, 0.000302500004, 1.49999996e-05
   2302, 0.000302500004, 1.99999995e-05
   2303, 0.000302500004, 2.49999994e-05
   2304, 0.000302500004, 2.99999992e-05
   2305, 0.000302500004, 3.50000009e-05
   2306, 0.000302500004, 3.9999999e-05
   2307, 0.000302500004, 4.50000007e-05
   2308, 0.000302500004, 4.99999987e-05
   2309, 0.000302500004, 5.50000004e-05
   2310, 0.000302500004, 5.99999985e-05
   2311, 0.000302500004, 6.50000002e-05
   2312, 0.000302500004, 7.00000019e-05
   2313, 0.000302500004, 7.50000036e-05
   2314, 0.000302500004, 7.9999998e-05
   2315, 0.000302500004, 8.49999997e-05
   2316, 0.000302500004, 9.00000014e-05
   2317, 0.000302500004, 9.50000031e-05
   2318, 0.000302500004, 9.99999975e-05
   2319, 0.000302500004, 0.000104999999
   2320, 0.000302500004, 0.000110000001
   2321, 0.000302500004, 0.000115000003
   2322, 0.000302500004, 0.000119999997
   2323, 0.000302500004, 0.000125000006
   2324, 0.000302500004,      0.00013
   2325, 0.000302500004, 0.000134999995
   2326, 0.000302500004, 0.000140000004
   2327, 0.000302500004, 0.000144999998
   2328, 0.000302500004, 0.000150000007
   2329, 0.000302500004, 0.000155000002
   2330, 0.000302500004, 0.000159999996
   2331, 0.000302500004, 0.000165000005
   2332, 0.000302500004, 0.000169999999
   2333, 0.000302500004, 0.000174999994
   2334, 0.000302500004, 0.000180000003
   2335, 0.000302500004, 0.000184999997
   2336, 0.000302500004, 0.000190000006
   2337, 0.000302500004, 0.000195000001
   2338, 0.000300999993, 4.99999987e-06
   2339, 0.000300999993, 9.99999975e-06
   2340, 0.000300999993, 1.49999996e-05
   2341, 0.000300999993, 1.99999995e-05
   2342, 0.000300999993, 2.49999994e-05
   2343, 0.000300999993, 2.99999992e-05
   2344, 0.000300999993, 3.50000009e-05
   2345, 0.000300999993, 3.9999999e-05
   2346, 0.000300999993, 4.50000007e-05
   2347, 0.000300999993, 4.99999987e-05
   2348, 0.000300999993, 5.50000004e-05
   2349, 0.000300999993, 5.99999985e-05
   2350, 0.000300999993, 6.50000002e-05
   2351, 0.000300999993, 7.00000019e-05
   2352, 0.000300999993, 7.50000036e-05
   2353, 0.000300999993, 7.9999998e-05
   2354, 0.000300999993, 8.49999997e-05
   2355, 0.000300999993, 9.00000014e-05
   2356, 0.000300999993, 9.50000031e-05
   2357, 0.000300999993, 9.99999975e-05
   2358, 0.000300999993, 0.000104999999
   2359, 0.000300999993, 0.000110000001
   2360, 0.000300999993, 0.000115000003
   2361, 0.000300999993, 0.000119999997
   2362, 0.000300999993, 0.000125000006
   2363, 0.000300999993,      0.00013
   2364, 0.000300999993, 0.000134999995
   2365, 0.000300999993, 0.000140000004
   2366, 0.000300999993, 0.000144999998
   2367, 0.000300999993, 0.000150000007
   2368, 0.000300999993, 0.000155000002
   2369, 0.000300999993, 0.000159999996
   2370, 0.000300999993, 0.000165000005
   2371, 0.000300999993, 0.000169999999
   2372, 0.000300999993, 0.000174999994
   2373, 0.000300999993, 0.000180000003
   2374, 0.000300999993, 0.000184999997
   2375, 0.000300999993, 0.000190000006
   2376, 0.000300999993, 0.000195000001
   2377, 0.00029950001, 4.99999987e-06
   2378, 0.00029950001, 9.99999975e-06
   2379, 0.00029950001, 1.49999996e-05
   2380, 0.00029950001, 1.99999995e-05
   2381, 0.00029950001, 2.49999994e-05
   2382, 0.00029950001, 2.99999992e-05
   2383, 0.00029950001, 3.50000009e-05
   2384, 0.00029950001, 3.9999999e-05
   2385, 0.00029950001, 4.50000007e-05
   2386, 0.00029950001, 4.99999987e-05
   2387, 0.00029950001, 5.50000004e-05
   2388, 0.00029950001, 5.99999985e-05
   2389, 0.00029950001, 6.50000002e-05
   2390, 0.00029950001, 7.00000019e-05
   2391, 0.00029950001, 7.50000036e-05
   2392, 0.00029950001, 7.9999998e-05
   2393, 0.00029950001, 8.49999997e-05
   2394, 0.00029950001, 9.00000014e-05
   2395, 0.00029950001, 9.50000031e-05
   2396, 0.00029950001, 9.99999975e-05
   2397, 0.00029950001, 0.000104999999
   2398, 0.00029950001, 0.000110000001
   2399, 0.00029950001, 0.000115000003
   2400, 0.00029950001, 0.000119999997
   2401, 0.00029950001, 0.000125000006
   2402, 0.00029950001,      0.00013
   2403, 0.00029950001, 0.000134999995
   2404, 0.00029950001, 0.000140000004
   2405, 0.00029950001, 0.000144999998
   2406, 0.00029950001, 0.000150000007
   2407, 0.00029950001, 0.000155000002
   2408, 0.00029950001, 0.000159999996
   2409, 0.00029950001, 0.000165000005
   2410, 0.00029950001, 0.000169999999
   2411, 0.00029950001, 0.000174999994
   2412, 0.00029950001, 0.000180000003
   2413, 0.00029950001, 0.000184999997
   2414, 0.00029950001, 0.000190000006
   2415, 0.00029950001, 0.000195000001
   2416, 0.000297999999, 4.99999987e-06
   2417, 0.000297999999, 9.99999975e-06
   2418, 0.000297999999, 1.49999996e-05
   2419, 0.000297999999, 1.99999995e-05
   2420, 0.000297999999, 2.49999994e-05
   2421, 0.000297999999, 2.99999992e-05
   2422, 0.000297999999, 3.50000009e-05
   2423, 0.000297999999, 3.9999999e-05
   2424, 0.000297999999, 4.50000007e-05
   2425, 0.000297999999, 4.99999987e-05
   2426, 0.000297999999, 5.50000004e-05
   2427, 0.000297999999, 5.99999985e-05
   2428, 0.000297999999, 6.50000002e-05
   2429, 0.000297999999, 7.00000019e-05
   2430, 0.000297999999, 7.50000036e-05
   2431, 0.000297999999, 7.9999998e-05
   2432, 0.000297999999, 8.49999997e-05
   2433, 0.000297999999, 9.00000014e-05
   2434, 0.000297999999, 9.50000031e-05
   2435, 0.000297999999, 9.99999975e-05
   2436, 0.000297999999, 0.000104999999
   2437, 0.000297999999, 0.000110000001
   2438, 0.000297999999, 0.000115000003
   2439, 0.000297999999, 0.000119999997
   2440, 0.000297999999, 0.000125000006
   2441, 0.000297999999,      0.00013
   2442, 0.000297999999, 0.000134999995
   2443, 0.000297999999, 0.000140000004
   2444, 0.000297999999, 0.000144999998
   2445, 0.000297999999, 0.000150000007
   2446, 0.000297999999, 0.000155000002
   2447, 0.000297999999, 0.000159999996
   2448, 0.000297999999, 0.000165000005
   2449, 0.000297999999, 0.000169999999
   2450, 0.000297999999, 0.000174999994
   2451, 0.000297999999, 0.000180000003
   2452, 0.000297999999, 0.000184999997
   2453, 0.000297999999, 0.000190000006
   2454, 0.000297999999, 0.000195000001
   2455, 0.000296499988, 4.99999987e-06
   2456, 0.000296499988, 9.99999975e-06
   2457, 0.000296499988, 1.49999996e-05
   2458, 0.000296499988, 1.99999995e-05
   2459, 0.000296499988, 2.49999994e-05
   2460, 0.000296499988, 2.99999992e-05
   2461, 0.000296499988, 3.50000009e-05
   2462, 0.000296499988, 3.9999999e-05
   2463, 0.000296499988, 4.50000007e-05
   2464, 0.000296499988, 4.99999987e-05
   2465, 0.000296499988, 5.50000004e-05
   2466, 0.000296499988, 5.99999985e-05
   2467, 0.000296499988, 6.50000002e-05
   2468, 0.000296499988, 7.00000019e-05
   2469, 0.000296499988, 7.50000036e-05
   2470, 0.000296499988, 7.9999998e-05
   2471, 0.000296499988, 8.49999997e-05
   2472, 0.000296499988, 9.00000014e-05
   2473, 0.000296499988, 9.50000031e-05
   2474, 0.000296499988, 9.99999975e-05
   2475, 0.000296499988, 0.000104999999
   2476, 0.000296499988, 0.000110000001
   2477, 0.000296499988, 0.000115000003
   2478, 0.000296499988, 0.000119999997
   2479, 0.000296499988, 0.000125000006
   2480, 0.000296499988,      0.00013
   2481, 0.000296499988, 0.000134999995
   2482, 0.000296499988, 0.000140000004
   2483, 0.000296499988, 0.000144999998
   2484, 0.000296499988, 0.000150000007
   2485, 0.000296499988, 0.000155000002
   2486, 0.000296499988, 0.000159999996
   2487, 0.000296499988, 0.000165000005
   2488, 0.000296499988, 0.000169999999
   2489, 0.000296499988, 0.000174999994
   2490, 0.000296499988, 0.000180000003
   2491, 0.000296499988, 0.000184999997
   2492, 0.000296499988, 0.000190000006
   2493, 0.000296499988, 0.000195000001
   2494, 0.000295000005, 4.99999987e-06
   2495, 0.000295000005, 9.99999975e-06
   2496, 0.000295000005, 1.49999996e-05
   2497, 0.000295000005, 1.99999995e-05
   2498, 0.000295000005, 2.49999994e-05
   2499, 0.000295000005, 2.99999992e-05
   2500, 0.000295000005, 3.50000009e-05
   2501, 0.000295000005, 3.9999999e-05
   2502, 0.000295000005, 4.50000007e-05
   2503, 0.000295000005, 4.99999987e-05
   2504, 0.000295000005, 5.50000004e-05
   2505, 0.000295000005, 5.99999985e-05
   2506, 0.000295000005, 6.50000002e-05
   2507, 0.000295000005, 7.00000019e-05
   2508, 0.000295000005, 7.50000036e-05
   2509, 0.000295000005, 7.9999998e-05
   2510, 0.000295000005, 8.49999997e-05
   2511, 0.000295000005, 9.00000014e-05
   2512, 0.000295000005, 9.50000031e-05
   2513, 0.000295000005, 9.99999975e-05
   2514, 0.000295000005, 0.000104999999
   2515, 0.000295000005, 0.000110000001
   2516, 0.000295000005, 0.000115000003
   2517, 0.000295000005, 0.000119999997
   2518, 0.000295000005, 0.000125000006
   2519, 0.000295000005,      0.00013
   2520, 0.000295000005, 0.000134999995
   2521, 0.000295000005, 0.000140000004
   2522, 0.000295000005, 0.000144999998
   2523, 0.000295000005, 0.000150000007
   2524, 0.000295000005, 0.000155000002
   2525, 0.000295000005, 0.000159999996
   2526, 0.000295000005, 0.000165000005
   2527, 0.000295000005, 0.000169999999
   2528, 0.000295000005, 0.000174999994
   2529, 0.000295000005, 0.000180000003
   2530, 0.000295000005, 0.000184999997
   2531, 0.000295000005, 0.000190000006
   2532, 0.000295000005, 0.000195000001
   2533, 0.000293499994, 4.99999987e-06
   2534, 0.000293499994, 9.99999975e-06
   2535, 0.000293499994, 1.49999996e-05
   2536, 0.000293499994, 1.99999995e-05
   2537, 0.000293499994, 2.49999994e-05
   2538, 0.000293499994, 2.99999992e-05
   2539, 0.000293499994, 3.50000009e-05
   2540, 0.000293499994, 3.9999999e-05
   2541, 0.000293499994, 4.50000007e-05
   2542, 0.000293499994, 4.99999987e-05
   2543, 0.000293499994, 5.50000004e-05
   2544, 0.000293499994, 5.99999985e-05
   2545, 0.000293499994, 6.50000002e-05
   2546, 0.000293499994, 7.00000019e-05
   2547, 0.000293499994, 7.50000036e-05
   2548, 0.000293499994, 7.9999998e-05
   2549, 0.000293499994, 8.49999997e-05
   2550, 0.000293499994, 9.00000014e-05
   2551, 0.000293499994, 9.50000031e-05
   2552, 0.000293499994, 9.99999975e-05
   2553, 0.000293499994, 0.000104999999
   2554, 0.000293499994, 0.000110000001
   2555, 0.000293499994, 0.000115000003
   2556, 0.000293499994, 0.000119999997
   2557, 0.000293499994, 0.000125000006
   2558, 0.000293499994,      0.00013
   2559, 0.000293499994, 0.000134999995
   2560, 0.000293499994, 0.000140000004
   2561, 0.000293499994, 0.000144999998
   2562, 0.000293499994, 0.000150000007
   2563, 0.000293499994, 0.000155000002
   2564, 0.000293499994, 0.000159999996
   2565, 0.000293499994, 0.000165000005
   2566, 0.000293499994, 0.000169999999
   2567, 0.000293499994, 0.000174999994
   2568, 0.000293499994, 0.000180000003
   2569, 0.000293499994, 0.000184999997
   2570, 0.000293499994, 0.000190000006
   2571, 0.000293499994, 0.000195000001
   2572, 0.000292000012, 4.99999987e-06
   2573, 0.000292000012, 9.99999975e-06
   2574, 0.000292000012, 1.49999996e-05
   2575, 0.000292000012, 1.99999995e-05
   2576, 0.000292000012, 2.49999994e-05
   2577, 0.000292000012, 2.99999992e-05
   2578, 0.000292000012, 3.50000009e-05
   2579, 0.000292000012, 3.9999999e-05
   2580, 0.000292000012, 4.50000007e-05
   2581, 0.000292000012, 4.99999987e-05
   2582, 0.000292000012, 5.50000004e-05
   2583, 0.000292000012, 5.99999985e-05
   2584, 0.000292000012, 6.50000002e-05
   2585, 0.000292000012, 7.00000019e-05
   2586, 0.000292000012, 7.50000036e-05
   2587, 0.000292000012, 7.9999998e-05
   2588, 0.000292000012, 8.49999997e-05
   2589, 0.000292000012, 9.00000014e-05
   2590, 0.000292000012, 9.50000031e-05
   2591, 0.000292000012, 9.99999975e-05
   2592, 0.000292000012, 0.000104999999
   2593, 0.000292000012, 0.000110000001
   2594, 0.000292000012, 0.000115000003
   2595, 0.000292000012, 0.000119999997
   2596, 0.000292000012, 0.000125000006
   2597, 0.000292000012,      0.00013
   2598, 0.000292000012, 0.000134999995
   2599, 0.000292000012, 0.000140000004
   2600, 0.000292000012, 0.000144999998
   2601, 0.000292000012, 0.000150000007
   2602, 0.000292000012, 0.000155000002
   2603, 0.000292000012, 0.000159999996
   2604, 0.000292000012, 0.000165000005
   2605, 0.000292000012, 0.000169999999
   2606, 0.000292000012, 0.000174999994
   2607, 0.000292000012, 0.000180000003
   2608, 0.000292000012, 0.000184999997
   2609, 0.000292000012, 0.000190000006
   2610, 0.000292000012, 0.000195000001
   2611,    0.0002905, 4.99999987e-06
   2612,    0.0002905, 9.99999975e-06
   2613,    0.0002905, 1.49999996e-05
   2614,    0.0002905, 1.99999995e-05
   2615,    0.0002905, 2.49999994e-05
   2616,    0.0002905, 2.99999992e-05
   2617,    0.0002905, 3.50000009e-05
   2618,    0.0002905, 3.9999999e-05
   2619,    0.0002905, 4.50000007e-05
   2620,    0.0002905, 4.99999987e-05
   2621,    0.0002905, 5.50000004e-05
   2622,    0.0002905, 5.99999985e-05
   2623,    0.0002905, 6.50000002e-05
   2624,    0.0002905, 7.00000019e-05
   2625,    0.0002905, 7.50000036e-05
   2626,    0.0002905, 7.9999998e-05
   2627,    0.0002905, 8.49999997e-05
   2628,    0.0002905, 9.00000014e-05
   2629,    0.0002905, 9.50000031e-05
   2630,    0.0002905, 9.99999975e-05
   2631,    0.0002905, 0.000104999999
   2632,    0.0002905, 0.000110000001
   2633,    0.0002905, 0.000115000003
   2634,    0.0002905, 0.000119999997
   2635,    0.0002905, 0.000125000006
   2636,    0.0002905,      0.00013
   2637,    0.0002905, 0.000134999995
   2638,    0.0002905, 0.000140000004
   2639,    0.0002905, 0.000144999998
   2640,    0.0002905, 0.000150000007
   2641,    0.0002905, 0.000155000002
   2642,    0.0002905, 0.000159999996
   2643,    0.0002905, 0.000165000005
   2644,    0.0002905, 0.000169999999
   2645,    0.0002905, 0.000174999994
   2646,    0.0002905, 0.000180000003
   2647,    0.0002905, 0.000184999997
   2648,    0.0002905, 0.000190000006
   2649,    0.0002905, 0.000195000001
   2650, 0.000288999989, 4.99999987e-06
   2651, 0.000288999989, 9.99999975e-06
   2652, 0.000288999989, 1.49999996e-05
   2653, 0.000288999989, 1.99999995e-05
   2654, 0.000288999989, 2.49999994e-05
   2655, 0.000288999989, 2.99999992e-05
   2656, 0.000288999989, 3.50000009e-05
   2657, 0.000288999989, 3.9999999e-05
   2658, 0.000288999989, 4.50000007e-05
   2659, 0.000288999989, 4.99999987e-05
   2660, 0.000288999989, 5.50000004e-05
   2661, 0.000288999989, 5.99999985e-05
   2662, 0.000288999989, 6.50000002e-05
   2663, 0.000288999989, 7.00000019e-05
   2664, 0.000288999989, 7.50000036e-05
   2665, 0.000288999989, 7.9999998e-05
   2666, 0.000288999989, 8.49999997e-05
   2667, 0.000288999989, 9.00000014e-05
   2668, 0.000288999989, 9.50000031e-05
   2669, 0.000288999989, 9.99999975e-05
   2670, 0.000288999989, 0.000104999999
   2671, 0.000288999989, 0.000110000001
   2672, 0.000288999989, 0.000115000003
   2673, 0.000288999989, 0.000119999997
   2674, 0.000288999989, 0.000125000006
   2675, 0.000288999989,      0.00013
   2676, 0.000288999989, 0.000134999995
   2677, 0.000288999989, 0.000140000004
   2678, 0.000288999989, 0.000144999998
   2679, 0.000288999989, 0.000150000007
   2680, 0.000288999989, 0.000155000002
   2681, 0.000288999989, 0.000159999996
   2682, 0.000288999989, 0.000165000005
   2683, 0.000288999989, 0.000169999999
   2684, 0.000288999989, 0.000174999994
   2685, 0.000288999989, 0.000180000003
   2686, 0.000288999989, 0.000184999997
   2687, 0.000288999989, 0.000190000006
   2688, 0.000288999989, 0.000195000001
   2689, 0.000287500006, 4.99999987e-06
   2690, 0.000287500006, 9.99999975e-06
   2691, 0.000287500006, 1.49999996e-05
   2692, 0.000287500006, 1.99999995e-05
   2693, 0.000287500006, 2.49999994e-05
   2694, 0.000287500006, 2.99999992e-05
   2695, 0.000287500006, 3.50000009e-05
   2696, 0.000287500006, 3.9999999e-05
   2697, 0.000287500006, 4.50000007e-05
   2698, 0.000287500006, 4.99999987e-05
   2699, 0.000287500006, 5.50000004e-05
   2700, 0.000287500006, 5.99999985e-05
   2701, 0.000287500006, 6.50000002e-05
   2702, 0.000287500006, 7.00000019e-05
   2703, 0.000287500006, 7.50000036e-05
   2704, 0.000287500006, 7.9999998e-05
   2705, 0.000287500006, 8.49999997e-05
   2706, 0.000287500006, 9.00000014e-05
   2707, 0.000287500006, 9.50000031e-05
   2708, 0.000287500006, 9.99999975e-05
   2709, 0.000287500006, 0.000104999999
   2710, 0.000287500006, 0.000110000001
   2711, 0.000287500006, 0.000115000003
   2712, 0.000287500006, 0.000119999997
   2713, 0.000287500006, 0.000125000006
   2714, 0.000287500006,      0.00013
   2715, 0.000287500006, 0.000134999995
   2716, 0.000287500006, 0.000140000004
   2717, 0.000287500006, 0.000144999998
   2718, 0.000287500006, 0.000150000007
   2719, 0.000287500006, 0.000155000002
   2720, 0.000287500006, 0.000159999996
   2721, 0.000287500006, 0.000165000005
   2722, 0.000287500006, 0.000169999999
   2723, 0.000287500006, 0.000174999994
   2724, 0.000287500006, 0.000180000003
   2725, 0.000287500006, 0.000184999997
   2726, 0.000287500006, 0.000190000006
   2727, 0.000287500006, 0.000195000001
   2728, 0.000285999995, 4.99999987e-06
   2729, 0.000285999995, 9.99999975e-06
   2730, 0.000285999995, 1.49999996e-05
   2731, 0.000285999995, 1.99999995e-05
   2732, 0.000285999995, 2.49999994e-05
   2733, 0.000285999995, 2.99999992e-05
   2734, 0.000285999995, 3.50000009e-05
   2735, 0.000285999995, 3.9999999e-05
   2736, 0.000285999995, 4.50000007e-05
   2737, 0.000285999995, 4.99999987e-05
   2738, 0.000285999995, 5.50000004e-05
   2739, 0.000285999995, 5.99999985e-05
   2740, 0.000285999995, 6.50000002e-05
   2741, 0.000285999995, 7.00000019e-05
   2742, 0.000285999995, 7.50000036e-05
   2743, 0.000285999995, 7.9999998e-05
   2744, 0.000285999995, 8.49999997e-05
   2745, 0.000285999995, 9.00000014e-05
   2746, 0.000285999995, 9.50000031e-05
   2747, 0.000285999995, 9.99999975e-05
   2748, 0.000285999995, 0.000104999999
   2749, 0.000285999995, 0.000110000001
   2750, 0.000285999995, 0.000115000003
   2751, 0.000285999995, 0.000119999997
   2752, 0.000285999995, 0.000125000006
   2753, 0.000285999995,      0.00013
   2754, 0.000285999995, 0.000134999995
   2755, 0.000285999995, 0.000140000004
   2756, 0.000285999995, 0.000144999998
   2757, 0.000285999995, 0.000150000007
   2758, 0.000285999995, 0.000155000002
   2759, 0.000285999995, 0.000159999996
   2760, 0.000285999995, 0.000165000005
   2761, 0.000285999995, 0.000169999999
   2762, 0.000285999995, 0.000174999994
   2763, 0.000285999995, 0.000180000003
   2764, 0.000285999995, 0.000184999997
   2765, 0.000285999995, 0.000190000006
   2766, 0.000285999995, 0.000195000001
   2767, 0.000284500013, 4.99999987e-06
   2768, 0.000284500013, 9.99999975e-06
   2769, 0.000284500013, 1.49999996e-05
   2770, 0.000284500013, 1.99999995e-05
   2771, 0.000284500013, 2.49999994e-05
   2772, 0.000284500013, 2.99999992e-05
   2773, 0.000284500013, 3.50000009e-05
   2774, 0.000284500013, 3.9999999e-05
   2775, 0.000284500013, 4.50000007e-05
   2776, 0.000284500013, 4.99999987e-05
   2777, 0.000284500013, 5.50000004e-05
   2778, 0.000284500013, 5.99999985e-05
   2779, 0.000284500013, 6.50000002e-05
   2780, 0.000284500013, 7.00000019e-05
   2781, 0.000284500013, 7.50000036e-05
   2782, 0.000284500013, 7.9999998e-05
   2783, 0.000284500013, 8.49999997e-05
   2784, 0.000284500013, 9.00000014e-05
   2785, 0.000284500013, 9.50000031e-05
   2786, 0.000284500013, 9.99999975e-05
   2787, 0.000284500013, 0.000104999999
   2788, 0.000284500013, 0.000110000001
   2789, 0.000284500013, 0.000115000003
   2790, 0.000284500013, 0.000119999997
   2791, 0.000284500013, 0.000125000006
   2792, 0.000284500013,      0.00013
   2793, 0.000284500013, 0.000134999995
   2794, 0.000284500013, 0.000140000004
   2795, 0.000284500013, 0.000144999998
   2796, 0.000284500013, 0.000150000007
   2797, 0.000284500013, 0.000155000002
   2798, 0.000284500013, 0.000159999996
   2799, 0.000284500013, 0.000165000005
   2800, 0.000284500013, 0.000169999999
   2801, 0.000284500013, 0.000174999994
   2802, 0.000284500013, 0.000180000003
   2803, 0.000284500013, 0.000184999997
   2804, 0.000284500013, 0.000190000006
   2805, 0.000284500013, 0.000195000001
   2806, 0.000283000001, 4.99999987e-06
   2807, 0.000283000001, 9.99999975e-06
   2808, 0.000283000001, 1.49999996e-05
   2809, 0.000283000001, 1.99999995e-05
   2810, 0.000283000001, 2.49999994e-05
   2811, 0.000283000001, 2.99999992e-05
   2812, 0.000283000001, 3.50000009e-05
   2813, 0.000283000001, 3.9999999e-05
   2814, 0.000283000001, 4.50000007e-05
   2815, 0.000283000001, 4.99999987e-05
   2816, 0.000283000001, 5.50000004e-05
   2817, 0.000283000001, 5.99999985e-05
   2818, 0.000283000001, 6.50000002e-05
   2819, 0.000283000001, 7.00000019e-05
   2820, 0.000283000001, 7.50000036e-05
   2821, 0.000283000001, 7.9999998e-05
   2822, 0.000283000001, 8.49999997e-05
   2823, 0.000283000001, 9.00000014e-05
   2824, 0.000283000001, 9.50000031e-05
   2825, 0.000283000001, 9.99999975e-05
   2826, 0.000283000001, 0.000104999999
   2827, 0.000283000001, 0.000110000001
   2828, 0.000283000001, 0.000115000003
   2829, 0.000283000001, 0.000119999997
   2830, 0.000283000001, 0.000125000006
   2831, 0.000283000001,      0.00013
   2832, 0.000283000001, 0.000134999995
   2833, 0.000283000001, 0.000140000004
   2834, 0.000283000001, 0.000144999998
   2835, 0.000283000001, 0.000150000007
   2836, 0.000283000001, 0.000155000002
   2837, 0.000283000001, 0.000159999996
   2838, 0.000283000001, 0.000165000005
   2839, 0.000283000001, 0.000169999999
   2840, 0.000283000001, 0.000174999994
   2841, 0.000283000001, 0.000180000003
   2842, 0.000283000001, 0.000184999997
   2843, 0.000283000001, 0.000190000006
   2844, 0.000283000001, 0.000195000001
   2845, 0.00028149999, 4.99999987e-06
   2846, 0.00028149999, 9.99999975e-06
   2847, 0.00028149999, 1.49999996e-05
   2848, 0.00028149999, 1.99999995e-05
   2849, 0.00028149999, 2.49999994e-05
   2850, 0.00028149999, 2.99999992e-05
   2851, 0.00028149999, 3.50000009e-05
   2852, 0.00028149999, 3.9999999e-05
   2853, 0.00028149999, 4.50000007e-05
   2854, 0.00028149999, 4.99999987e-05
   2855, 0.00028149999, 5.50000004e-05
   2856, 0.00028149999, 5.99999985e-05
   2857, 0.00028149999, 6.50000002e-05
   2858, 0.00028149999, 7.00000019e-05
   2859, 0.00028149999, 7.50000036e-05
   2860, 0.00028149999, 7.9999998e-05
   2861, 0.00028149999, 8.49999997e-05
   2862, 0.00028149999, 9.00000014e-05
   2863, 0.00028149999, 9.50000031e-05
   2864, 0.00028149999, 9.99999975e-05
   2865, 0.00028149999, 0.000104999999
   2866, 0.00028149999, 0.000110000001
   2867, 0.00028149999, 0.000115000003
   2868, 0.00028149999, 0.000119999997
   2869, 0.00028149999, 0.000125000006
   2870, 0.00028149999,      0.00013
   2871, 0.00028149999, 0.000134999995
   2872, 0.00028149999, 0.000140000004
   2873, 0.00028149999, 0.000144999998
   2874, 0.00028149999, 0.000150000007
   2875, 0.00028149999, 0.000155000002
   2876, 0.00028149999, 0.000159999996
   2877, 0.00028149999, 0.000165000005
   2878, 0.00028149999, 0.000169999999
   2879, 0.00028149999, 0.000174999994
   2880, 0.00028149999, 0.000180000003
   2881, 0.00028149999, 0.000184999997
   2882, 0.00028149999, 0.000190000006
   2883, 0.00028149999, 0.000195000001
   2884, 0.000280000007, 4.99999987e-06
   2885, 0.000280000007, 9.99999975e-06
   2886, 0.000280000007, 1.49999996e-05
   2887, 0.000280000007, 1.99999995e-05
   2888, 0.000280000007, 2.49999994e-05
   2889, 0.000280000007, 2.99999992e-05
   2890, 0.000280000007, 3.50000009e-05
   2891, 0.000280000007, 3.9999999e-05
   2892, 0.000280000007, 4.50000007e-05
   2893, 0.000280000007, 4.99999987e-05
   2894, 0.000280000007, 5.50000004e-05
   2895, 0.000280000007, 5.99999985e-05
   2896, 0.000280000007, 6.50000002e-05
   2897, 0.000280000007, 7.00000019e-05
   2898, 0.000280000007, 7.50000036e-05
   2899, 0.000280000007, 7.9999998e-05
   2900, 0.000280000007, 8.49999997e-05
   2901, 0.000280000007, 9.00000014e-05
   2902, 0.000280000007, 9.50000031e-05
   2903, 0.000280000007, 9.99999975e-05
   2904, 0.000280000007, 0.000104999999
   2905, 0.000280000007, 0.000110000001
   2906, 0.000280000007, 0.000115000003
   2907, 0.000280000007, 0.000119999997
   2908, 0.000280000007, 0.000125000006
   2909, 0.000280000007,      0.00013
   2910, 0.000280000007, 0.000134999995
   2911, 0.000280000007, 0.000140000004
   2912, 0.000280000007, 0.000144999998
   2913, 0.000280000007, 0.000150000007
   2914, 0.000280000007, 0.000155000002
   2915, 0.000280000007, 0.000159999996
   2916, 0.000280000007, 0.000165000005
   2917, 0.000280000007, 0.000169999999
   2918, 0.000280000007, 0.000174999994
   2919, 0.000280000007, 0.000180000003
   2920, 0.000280000007, 0.000184999997
   2921, 0.000280000007, 0.000190000006
   2922, 0.000280000007, 0.000195000001
   2923, 0.000278499996, 4.99999987e-06
   2924, 0.000278499996, 9.99999975e-06
   2925, 0.000278499996, 1.49999996e-05
   2926, 0.000278499996, 1.99999995e-05
   2927, 0.000278499996, 2.49999994e-05
   2928, 0.000278499996, 2.99999992e-05
   2929, 0.000278499996, 3.50000009e-05
   2930, 0.000278499996, 3.9999999e-05
   2931, 0.000278499996, 4.50000007e-05
   2932, 0.000278499996, 4.99999987e-05
   2933, 0.000278499996, 5.50000004e-05
   2934, 0.000278499996, 5.99999985e-05
   2935, 0.000278499996, 6.50000002e-05
   2936, 0.000278499996, 7.00000019e-05
   2937, 0.000278499996, 7.50000036e-05
   2938, 0.000278499996, 7.9999998e-05
   2939, 0.000278499996, 8.49999997e-05
   2940, 0.000278499996, 9.00000014e-05
   2941, 0.000278499996, 9.50000031e-05
   2942, 0.000278499996, 9.99999975e-05
   2943, 0.000278499996, 0.000104999999
   2944, 0.000278499996, 0.000110000001
   2945, 0.000278499996, 0.000115000003
   2946, 0.000278499996, 0.000119999997
   2947, 0.000278499996, 0.000125000006
   2948, 0.000278499996,      0.00013
   2949, 0.000278499996, 0.000134999995
   2950, 0.000278499996, 0.000140000004
   2951, 0.000278499996, 0.000144999998
   2952, 0.000278499996, 0.000150000007
   2953, 0.000278499996, 0.000155000002
   2954, 0.000278499996, 0.000159999996
   2955, 0.000278499996, 0.000165000005
   2956, 0.000278499996, 0.000169999999
   2957, 0.000278499996, 0.000174999994
   2958, 0.000278499996, 0.000180000003
   2959, 0.000278499996, 0.000184999997
   2960, 0.000278499996, 0.000190000006
   2961, 0.000278499996, 0.000195000001
   2962, 0.000277000014, 4.99999987e-06
   2963, 0.000277000014, 9.99999975e-06
   2964, 0.000277000014, 1.49999996e-05
   2965, 0.000277000014, 1.99999995e-05
   2966, 0.000277000014, 2.49999994e-05
   2967, 0.000277000014, 2.99999992e-05
   2968, 0.000277000014, 3.50000009e-05
   2969, 0.000277000014, 3.9999999e-05
   2970, 0.000277000014, 4.50000007e-05
   2971, 0.000277000014, 4.99999987e-05
   2972, 0.000277000014, 5.50000004e-05
   2973, 0.000277000014, 5.99999985e-05
   2974, 0.000277000014, 6.50000002e-05
   2975, 0.000277000014, 7.00000019e-05
   2976, 0.000277000014, 7.50000036e-05
   2977, 0.000277000014, 7.9999998e-05
   2978, 0.000277000014, 8.49999997e-05
   2979, 0.000277000014, 9.00000014e-05
   2980, 0.000277000014, 9.50000031e-05
   2981, 0.000277000014, 9.99999975e-05
   2982, 0.000277000014, 0.000104999999
   2983, 0.000277000014, 0.000110000001
   2984, 0.000277000014, 0.000115000003
   2985, 0.000277000014, 0.000119999997
   2986, 0.000277000014, 0.000125000006
   2987, 0.000277000014,      0.00013
   2988, 0.000277000014, 0.000134999995
   2989, 0.000277000014, 0.000140000004
   2990, 0.000277000014, 0.000144999998
   2991, 0.000277000014, 0.000150000007
   2992, 0.000277000014, 0.000155000002
   2993, 0.000277000014, 0.000159999996
   2994, 0.000277000014, 0.000165000005
   2995, 0.000277000014, 0.000169999999
   2996, 0.000277000014, 0.000174999994
   2997, 0.000277000014, 0.000180000003
   2998, 0.000277000014, 0.000184999997
   2999, 0.000277000014, 0.000190000006
   3000, 0.000277000014, 0.000195000001
   3001, 0.000275500002, 4.99999987e-06
   3002, 0.000275500002, 9.99999975e-06
   3003, 0.000275500002, 1.49999996e-05
   3004, 0.000275500002, 1.99999995e-05
   3005, 0.000275500002, 2.49999994e-05
   3006, 0.000275500002, 2.99999992e-05
   3007, 0.000275500002, 3.50000009e-05
   3008, 0.000275500002, 3.9999999e-05
   3009, 0.000275500002, 4.50000007e-05
   3010, 0.000275500002, 4.99999987e-05
   3011, 0.000275500002, 5.50000004e-05
   3012, 0.000275500002, 5.99999985e-05
   3013, 0.000275500002, 6.50000002e-05
   3014, 0.000275500002, 7.00000019e-05
   3015, 0.000275500002, 7.50000036e-05
   3016, 0.000275500002, 7.9999998e-05
   3017, 0.000275500002, 8.49999997e-05
   3018, 0.000275500002, 9.00000014e-05
   3019, 0.000275500002, 9.50000031e-05
   3020, 0.000275500002, 9.99999975e-05
   3021, 0.000275500002, 0.000104999999
   3022, 0.000275500002, 0.000110000001
   3023, 0.000275500002, 0.000115000003
   3024, 0.000275500002, 0.000119999997
   3025, 0.000275500002, 0.000125000006
   3026, 0.000275500002,      0.00013
   3027, 0.000275500002, 0.000134999995
   3028, 0.000275500002, 0.000140000004
   3029, 0.000275500002, 0.000144999998
   3030, 0.000275500002, 0.000150000007
   3031, 0.000275500002, 0.000155000002
   3032, 0.000275500002, 0.000159999996
   3033, 0.000275500002, 0.000165000005
   3034, 0.000275500002, 0.000169999999
   3035, 0.000275500002, 0.000174999994
   3036, 0.000275500002, 0.000180000003
   3037, 0.000275500002, 0.000184999997
   3038, 0.000275500002, 0.000190000006
   3039, 0.000275500002, 0.000195000001
   3040, 0.000273999991, 4.99999987e-06
   3041, 0.000273999991, 9.99999975e-06
   3042, 0.000273999991, 1.49999996e-05
   3043, 0.000273999991, 1.99999995e-05
   3044, 0.000273999991, 2.49999994e-05
   3045, 0.000273999991, 2.99999992e-05
   3046, 0.000273999991, 3.50000009e-05
   3047, 0.000273999991, 3.9999999e-05
   3048, 0.000273999991, 4.50000007e-05
   3049, 0.000273999991, 4.99999987e-05
   3050, 0.000273999991, 5.50000004e-05
   3051, 0.000273999991, 5.99999985e-05
   3052, 0.000273999991, 6.50000002e-05
   3053, 0.000273999991, 7.00000019e-05
   3054, 0.000273999991, 7.50000036e-05
   3055, 0.000273999991, 7.9999998e-05
   3056, 0.000273999991, 8.49999997e-05
   3057, 0.000273999991, 9.00000014e-05
   3058, 0.000273999991, 9.50000031e-05
   3059, 0.000273999991, 9.99999975e-05
   3060, 0.000273999991, 0.000104999999
   3061, 0.000273999991, 0.000110000001
   3062, 0.000273999991, 0.000115000003
   3063, 0.000273999991, 0.000119999997
   3064, 0.000273999991, 0.000125000006
   3065, 0.000273999991,      0.00013
   3066, 0.000273999991, 0.000134999995
   3067, 0.000273999991, 0.000140000004
   3068, 0.000273999991, 0.000144999998
   3069, 0.000273999991, 0.000150000007
   3070, 0.000273999991, 0.000155000002
   3071, 0.000273999991, 0.000159999996
   3072, 0.000273999991, 0.000165000005
   3073, 0.000273999991, 0.000169999999
   3074, 0.000273999991, 0.000174999994
   3075, 0.000273999991, 0.000180000003
   3076, 0.000273999991, 0.000184999997
   3077, 0.000273999991, 0.000190000006
   3078, 0.000273999991, 0.000195000001
   3079, 0.000272500009, 4.99999987e-06
   3080, 0.000272500009, 9.99999975e-06
   3081, 0.000272500009, 1.49999996e-05
   3082, 0.000272500009, 1.99999995e-05
   3083, 0.000272500009, 2.49999994e-05
   3084, 0.000272500009, 2.99999992e-05
   3085, 0.000272500009, 3.50000009e-05
   3086, 0.000272500009, 3.9999999e-05
   3087, 0.000272500009, 4.50000007e-05
   3088, 0.000272500009, 4.99999987e-05
   3089, 0.000272500009, 5.50000004e-05
   3090, 0.000272500009, 5.99999985e-05
   3091, 0.000272500009, 6.50000002e-05
   3092, 0.000272500009, 7.00000019e-05
   3093, 0.000272500009, 7.50000036e-05
   3094, 0.000272500009, 7.9999998e-05
   3095, 0.000272500009, 8.49999997e-05
   3096, 0.000272500009, 9.00000014e-05
   3097, 0.000272500009, 9.50000031e-05
   3098, 0.000272500009, 9.99999975e-05
   3099, 0.000272500009, 0.000104999999
   3100, 0.000272500009, 0.000110000001
   3101, 0.000272500009, 0.000115000003
   3102, 0.000272500009, 0.000119999997
   3103, 0.000272500009, 0.000125000006
   3104, 0.000272500009,      0.00013
   3105, 0.000272500009, 0.000134999995
   3106, 0.000272500009, 0.000140000004
   3107, 0.000272500009, 0.000144999998
   3108, 0.000272500009, 0.000150000007
   3109, 0.000272500009, 0.000155000002
   3110, 0.000272500009, 0.000159999996
   3111, 0.000272500009, 0.000165000005
   3112, 0.000272500009, 0.000169999999
   3113, 0.000272500009, 0.000174999994
   3114, 0.000272500009, 0.000180000003
   3115, 0.000272500009, 0.000184999997
   3116, 0.000272500009, 0.000190000006
   3117, 0.000272500009, 0.000195000001
   3118, 0.000270999997, 4.99999987e-06
   3119, 0.000270999997, 9.99999975e-06
   3120, 0.000270999997, 1.49999996e-05
   3121, 0.000270999997, 1.99999995e-05
   3122, 0.000270999997, 2.49999994e-05
   3123, 0.000270999997, 2.99999992e-05
   3124, 0.000270999997, 3.50000009e-05
   3125, 0.000270999997, 3.9999999e-05
   3126, 0.000270999997, 4.50000007e-05
   3127, 0.000270999997, 4.99999987e-05
   3128, 0.000270999997, 5.50000004e-05
   3129, 0.000270999997, 5.99999985e-05
   3130, 0.000270999997, 6.50000002e-05
   3131, 0.000270999997, 7.00000019e-05
   3132, 0.000270999997, 7.50000036e-05
   3133, 0.000270999997, 7.9999998e-05
   3134, 0.000270999997, 8.49999997e-05
   3135, 0.000270999997, 9.00000014e-05
   3136, 0.000270999997, 9.50000031e-05
   3137, 0.000270999997, 9.99999975e-05
   3138, 0.000270999997, 0.000104999999
   3139, 0.000270999997, 0.000110000001
   3140, 0.000270999997, 0.000115000003
   3141, 0.000270999997, 0.000119999997
   3142, 0.000270999997, 0.000125000006
   3143, 0.000270999997,      0.00013
   3144, 0.000270999997, 0.000134999995
   3145, 0.000270999997, 0.000140000004
   3146, 0.000270999997, 0.000144999998
   3147, 0.000270999997, 0.000150000007
   3148, 0.000270999997, 0.000155000002
   3149, 0.000270999997, 0.000159999996
   3150, 0.000270999997, 0.000165000005
   3151, 0.000270999997, 0.000169999999
   3152, 0.000270999997, 0.000174999994
   3153, 0.000270999997, 0.000180000003
   3154, 0.000270999997, 0.000184999997
   3155, 0.000270999997, 0.000190000006
   3156, 0.000270999997, 0.000195000001
   3157, 0.000269499986, 4.99999987e-06
   3158, 0.000269499986, 9.99999975e-06
   3159, 0.000269499986, 1.49999996e-05
   3160, 0.000269499986, 1.99999995e-05
   3161, 0.000269499986, 2.49999994e-05
   3162, 0.000269499986, 2.99999992e-05
   3163, 0.000269499986, 3.50000009e-05
   3164, 0.000269499986, 3.9999999e-05
   3165, 0.000269499986, 4.50000007e-05
   3166, 0.000269499986, 4.99999987e-05
   3167, 0.000269499986, 5.50000004e-05
   3168, 0.000269499986, 5.99999985e-05
   3169, 0.000269499986, 6.50000002e-05
   3170, 0.000269499986, 7.00000019e-05
   3171, 0.000269499986, 7.50000036e-05
   3172, 0.000269499986, 7.9999998e-05
   3173, 0.000269499986, 8.49999997e-05
   3174, 0.000269499986, 9.00000014e-05
   3175, 0.000269499986, 9.50000031e-05
   3176, 0.000269499986, 9.99999975e-05
   3177, 0.000269499986, 0.000104999999
   3178, 0.000269499986, 0.000110000001
   3179, 0.000269499986, 0.000115000003
   3180, 0.000269499986, 0.000119999997
   3181, 0.000269499986, 0.000125000006
   3182, 0.000269499986,      0.00013
   3183, 0.000269499986, 0.000134999995
   3184, 0.000269499986, 0.000140000004
   3185, 0.000269499986, 0.000144999998
   3186, 0.000269499986, 0.000150000007
   3187, 0.000269499986, 0.000155000002
   3188, 0.000269499986, 0.000159999996
   3189, 0.000269499986, 0.000165000005
   3190, 0.000269499986, 0.000169999999
   3191, 0.000269499986, 0.000174999994
   3192, 0.000269499986, 0.000180000003
   3193, 0.000269499986, 0.000184999997
   3194, 0.000269499986, 0.000190000006
   3195, 0.000269499986, 0.000195000001
   3196, 0.000268000003, 4.99999987e-06
   3197, 0.000268000003, 9.99999975e-06
   3198, 0.000268000003, 1.49999996e-05
   3199, 0.000268000003, 1.99999995e-05
   3200, 0.000268000003, 2.49999994e-05
   3201, 0.000268000003, 2.99999992e-05
   3202, 0.000268000003, 3.50000009e-05
   3203, 0.000268000003, 3.9999999e-05
   3204, 0.000268000003, 4.50000007e-05
   3205, 0.000268000003, 4.99999987e-05
   3206, 0.000268000003, 5.50000004e-05
   3207, 0.000268000003, 5.99999985e-05
   3208, 0.000268000003, 6.50000002e-05
   3209, 0.000268000003, 7.00000019e-05
   3210, 0.000268000003, 7.50000036e-05
   3211, 0.000268000003, 7.9999998e-05
   3212, 0.000268000003, 8.49999997e-05
   3213, 0.000268000003, 9.00000014e-05
   3214, 0.000268000003, 9.50000031e-05
   3215, 0.000268000003, 9.99999975e-05
   3216, 0.000268000003, 0.000104999999
   3217, 0.000268000003, 0.000110000001
   3218, 0.000268000003, 0.000115000003
   3219, 0.000268000003, 0.000119999997
   3220, 0.000268000003, 0.000125000006
   3221, 0.000268000003,      0.00013
   3222, 0.000268000003, 0.000134999995
   3223, 0.000268000003, 0.000140000004
   3224, 0.000268000003, 0.000144999998
   3225, 0.000268000003, 0.000150000007
   3226, 0.000268000003, 0.000155000002
   3227, 0.000268000003, 0.000159999996
   3228, 0.000268000003, 0.000165000005
   3229, 0.000268000003, 0.000169999999
   3230, 0.000268000003, 0.000174999994
   3231, 0.000268000003, 0.000180000003
   3232, 0.000268000003, 0.000184999997
   3233, 0.000268000003, 0.000190000006
   3234, 0.000268000003, 0.000195000001
   3235, 0.000266499992, 4.99999987e-06
   3236, 0.000266499992, 9.99999975e-06
   3237, 0.000266499992, 1.49999996e-05
   3238, 0.000266499992, 1.99999995e-05
   3239, 0.000266499992, 2.49999994e-05
   3240, 0.000266499992, 2.99999992e-05
   3241, 0.000266499992, 3.50000009e-05
   3242, 0.000266499992, 3.9999999e-05
   3243, 0.000266499992, 4.50000007e-05
   3244, 0.000266499992, 4.99999987e-05
   3245, 0.000266499992, 5.50000004e-05
   3246, 0.000266499992, 5.99999985e-05
   3247, 0.000266499992, 6.50000002e-05
   3248, 0.000266499992, 7.00000019e-05
   3249, 0.000266499992, 7.50000036e-05
   3250, 0.000266499992, 7.9999998e-05
   3251, 0.000266499992, 8.49999997e-05
   3252, 0.000266499992, 9.00000014e-05
   3253, 0.000266499992, 9.50000031e-05
   3254, 0.000266499992, 9.99999975e-05
   3255, 0.000266499992, 0.000104999999
   3256, 0.000266499992, 0.000110000001
   3257, 0.000266499992, 0.000115000003
   3258, 0.000266499992, 0.000119999997
   3259, 0.000266499992, 0.000125000006
   3260, 0.000266499992,      0.00013
   3261, 0.000266499992, 0.000134999995
   3262, 0.000266499992, 0.000140000004
   3263, 0.000266499992, 0.000144999998
   3264, 0.000266499992, 0.000150000007
   3265, 0.000266499992, 0.000155000002
   3266, 0.000266499992, 0.000159999996
   3267, 0.000266499992, 0.000165000005
   3268, 0.000266499992, 0.000169999999
   3269, 0.000266499992, 0.000174999994
   3270, 0.000266499992, 0.000180000003
   3271, 0.000266499992, 0.000184999997
   3272, 0.000266499992, 0.000190000006
   3273, 0.000266499992, 0.000195000001
   3274, 0.00026500001, 4.99999987e-06
   3275, 0.00026500001, 9.99999975e-06
   3276, 0.00026500001, 1.49999996e-05
   3277, 0.00026500001, 1.99999995e-05
   3278, 0.00026500001, 2.49999994e-05
   3279, 0.00026500001, 2.99999992e-05
   3280, 0.00026500001, 3.50000009e-05
   3281, 0.00026500001, 3.9999999e-05
   3282, 0.00026500001, 4.50000007e-05
   3283, 0.00026500001, 4.99999987e-05
   3284, 0.00026500001, 5.50000004e-05
   3285, 0.00026500001, 5.99999985e-05
   3286, 0.00026500001, 6.50000002e-05
   3287, 0.00026500001, 7.00000019e-05
   3288, 0.00026500001, 7.50000036e-05
   3289, 0.00026500001, 7.9999998e-05
   3290, 0.00026500001, 8.49999997e-05
   3291, 0.00026500001, 9.00000014e-05
   3292, 0.00026500001, 9.50000031e-05
   3293, 0.00026500001, 9.99999975e-05
   3294, 0.00026500001, 0.000104999999
   3295, 0.00026500001, 0.000110000001
   3296, 0.00026500001, 0.000115000003
   3297, 0.00026500001, 0.000119999997
   3298, 0.00026500001, 0.000125000006
   3299, 0.00026500001,      0.00013
   3300, 0.00026500001, 0.000134999995
   3301, 0.00026500001, 0.000140000004
   3302, 0.00026500001, 0.000144999998
   3303, 0.00026500001, 0.000150000007
   3304, 0.00026500001, 0.000155000002
   3305, 0.00026500001, 0.000159999996
   3306, 0.00026500001, 0.000165000005
   3307, 0.00026500001, 0.000169999999
   3308, 0.00026500001, 0.000174999994
   3309, 0.00026500001, 0.000180000003
   3310, 0.00026500001, 0.000184999997
   3311, 0.00026500001, 0.000190000006
   3312, 0.00026500001, 0.000195000001
   3313, 0.000263499998, 4.99999987e-06
   3314, 0.000263499998, 9.99999975e-06
   3315, 0.000263499998, 1.49999996e-05
   3316, 0.000263499998, 1.99999995e-05
   3317, 0.000263499998, 2.49999994e-05
   3318, 0.000263499998, 2.99999992e-05
   3319, 0.000263499998, 3.50000009e-05
   3320, 0.000263499998, 3.9999999e-05
   3321, 0.000263499998, 4.50000007e-05
   3322, 0.000263499998, 4.99999987e-05
   3323, 0.000263499998, 5.50000004e-05
   3324, 0.000263499998, 5.99999985e-05
   3325, 0.000263499998, 6.50000002e-05
   3326, 0.000263499998, 7.00000019e-05
   3327, 0.000263499998, 7.50000036e-05
   3328, 0.000263499998, 7.9999998e-05
   3329, 0.000263499998, 8.49999997e-05
   3330, 0.000263499998, 9.00000014e-05
   3331, 0.000263499998, 9.50000031e-05
   3332, 0.000263499998, 9.99999975e-05
   3333, 0.000263499998, 0.000104999999
   3334, 0.000263499998, 0.000110000001
   3335, 0.000263499998, 0.000115000003
   3336, 0.000263499998, 0.000119999997
   3337, 0.000263499998, 0.000125000006
   3338, 0.000263499998,      0.00013
   3339, 0.000263499998, 0.000134999995
   3340, 0.000263499998, 0.000140000004
   3341, 0.000263499998, 0.000144999998
   3342, 0.000263499998, 0.000150000007
   3343, 0.000263499998, 0.000155000002
   3344, 0.000263499998, 0.000159999996
   3345, 0.000263499998, 0.000165000005
   3346, 0.000263499998, 0.000169999999
   3347, 0.000263499998, 0.000174999994
   3348, 0.000263499998, 0.000180000003
   3349, 0.000263499998, 0.000184999997
   3350, 0.000263499998, 0.000190000006
   3351, 0.000263499998, 0.000195000001
   3352, 0.000261999987, 4.99999987e-06
   3353, 0.000261999987, 9.99999975e-06
   3354, 0.000261999987, 1.49999996e-05
   3355, 0.000261999987, 1.99999995e-05
   3356, 0.000261999987, 2.49999994e-05
   3357, 0.000261999987, 2.99999992e-05
   3358, 0.000261999987, 3.50000009e-05
   3359, 0.000261999987, 3.9999999e-05
   3360, 0.000261999987, 4.50000007e-05
   3361, 0.000261999987, 4.99999987e-05
   3362, 0.000261999987, 5.50000004e-05
   3363, 0.000261999987, 5.99999985e-05
   3364, 0.000261999987, 6.50000002e-05
   3365, 0.000261999987, 7.00000019e-05
   3366, 0.000261999987, 7.50000036e-05
   3367, 0.000261999987, 7.9999998e-05
   3368, 0.000261999987, 8.49999997e-05
   3369, 0.000261999987, 9.00000014e-05
   3370, 0.000261999987, 9.50000031e-05
   3371, 0.000261999987, 9.99999975e-05
   3372, 0.000261999987, 0.000104999999
   3373, 0.000261999987, 0.000110000001
   3374, 0.000261999987, 0.000115000003
   3375, 0.000261999987, 0.000119999997
   3376, 0.000261999987, 0.000125000006
   3377, 0.000261999987,      0.00013
   3378, 0.000261999987, 0.000134999995
   3379, 0.000261999987, 0.000140000004
   3380, 0.000261999987, 0.000144999998
   3381, 0.000261999987, 0.000150000007
   3382, 0.000261999987, 0.000155000002
   3383, 0.000261999987, 0.000159999996
   3384, 0.000261999987, 0.000165000005
   3385, 0.000261999987, 0.000169999999
   3386, 0.000261999987, 0.000174999994
   3387, 0.000261999987, 0.000180000003
   3388, 0.000261999987, 0.000184999997
   3389, 0.000261999987, 0.000190000006
   3390, 0.000261999987, 0.000195000001
   3391, 0.000260500005, 4.99999987e-06
   3392, 0.000260500005, 9.99999975e-06
   3393, 0.000260500005, 1.49999996e-05
   3394, 0.000260500005, 1.99999995e-05
   3395, 0.000260500005, 2.49999994e-05
   3396, 0.000260500005, 2.99999992e-05
   3397, 0.000260500005, 3.50000009e-05
   3398, 0.000260500005, 3.9999999e-05
   3399, 0.000260500005, 4.50000007e-05
   3400, 0.000260500005, 4.99999987e-05
   3401, 0.000260500005, 5.50000004e-05
   3402, 0.000260500005, 5.99999985e-05
   3403, 0.000260500005, 6.50000002e-05
   3404, 0.000260500005, 7.00000019e-05
   3405, 0.000260500005, 7.50000036e-05
   3406, 0.000260500005, 7.9999998e-05
   3407, 0.000260500005, 8.49999997e-05
   3408, 0.000260500005, 9.00000014e-05
   3409, 0.000260500005, 9.50000031e-05
   3410, 0.000260500005, 9.99999975e-05
   3411, 0.000260500005, 0.000104999999
   3412, 0.000260500005, 0.000110000001
   3413, 0.000260500005, 0.000115000003
   3414, 0.000260500005, 0.000119999997
   3415, 0.000260500005, 0.000125000006
   3416, 0.000260500005,      0.00013
   3417, 0.000260500005, 0.000134999995
   3418, 0.000260500005, 0.000140000004
   3419, 0.000260500005, 0.000144999998
   3420, 0.000260500005, 0.000150000007
   3421, 0.000260500005, 0.000155000002
   3422, 0.000260500005, 0.000159999996
   3423, 0.000260500005, 0.000165000005
   3424, 0.000260500005, 0.000169999999
   3425, 0.000260500005, 0.000174999994
   3426, 0.000260500005, 0.000180000003
   3427, 0.000260500005, 0.000184999997
   3428, 0.000260500005, 0.000190000006
   3429, 0.000260500005, 0.000195000001
   3430, 0.000258999993, 4.99999987e-06
   3431, 0.000258999993, 9.99999975e-06
   3432, 0.000258999993, 1.49999996e-05
   3433, 0.000258999993, 1.99999995e-05
   3434, 0.000258999993, 2.49999994e-05
   3435, 0.000258999993, 2.99999992e-05
   3436, 0.000258999993, 3.50000009e-05
   3437, 0.000258999993, 3.9999999e-05
   3438, 0.000258999993, 4.50000007e-05
   3439, 0.000258999993, 4.99999987e-05
   3440, 0.000258999993, 5.50000004e-05
   3441, 0.000258999993, 5.99999985e-05
   3442, 0.000258999993, 6.50000002e-05
   3443, 0.000258999993, 7.00000019e-05
   3444, 0.000258999993, 7.50000036e-05
   3445, 0.000258999993, 7.9999998e-05
   3446, 0.000258999993, 8.49999997e-05
   3447, 0.000258999993, 9.00000014e-05
   3448, 0.000258999993, 9.50000031e-05
   3449, 0.000258999993, 9.99999975e-05
   3450, 0.000258999993, 0.000104999999
   3451, 0.000258999993, 0.000110000001
   3452, 0.000258999993, 0.000115000003
   3453, 0.000258999993, 0.000119999997
   3454, 0.000258999993, 0.000125000006
   3455, 0.000258999993,      0.00013
   3456, 0.000258999993, 0.000134999995
   3457, 0.000258999993, 0.000140000004
   3458, 0.000258999993, 0.000144999998
   3459, 0.000258999993, 0.000150000007
   3460, 0.000258999993, 0.000155000002
   3461, 0.000258999993, 0.000159999996
   3462, 0.000258999993, 0.000165000005
   3463, 0.000258999993, 0.000169999999
   3464, 0.000258999993, 0.000174999994
   3465, 0.000258999993, 0.000180000003
   3466, 0.000258999993, 0.000184999997
   3467, 0.000258999993, 0.000190000006
   3468, 0.000258999993, 0.000195000001
   3469, 0.000257500011, 4.99999987e-06
   3470, 0.000257500011, 9.99999975e-06
   3471, 0.000257500011, 1.49999996e-05
   3472, 0.000257500011, 1.99999995e-05
   3473, 0.000257500011, 2.49999994e-05
   3474, 0.000257500011, 2.99999992e-05
   3475, 0.000257500011, 3.50000009e-05
   3476, 0.000257500011, 3.9999999e-05
   3477, 0.000257500011, 4.50000007e-05
   3478, 0.000257500011, 4.99999987e-05
   3479, 0.000257500011, 5.50000004e-05
   3480, 0.000257500011, 5.99999985e-05
   3481, 0.000257500011, 6.50000002e-05
   3482, 0.000257500011, 7.00000019e-05
   3483, 0.000257500011, 7.50000036e-05
   3484, 0.000257500011, 7.9999998e-05
   3485, 0.000257500011, 8.49999997e-05
   3486, 0.000257500011, 9.00000014e-05
   3487, 0.000257500011, 9.50000031e-05
   3488, 0.000257500011, 9.99999975e-05
   3489, 0.000257500011, 0.000104999999
   3490, 0.000257500011, 0.000110000001
   3491, 0.000257500011, 0.000115000003
   3492, 0.000257500011, 0.000119999997
   3493, 0.000257500011, 0.000125000006
   3494, 0.000257500011,      0.00013
   3495, 0.000257500011, 0.000134999995
   3496, 0.000257500011, 0.000140000004
   3497, 0.000257500011, 0.000144999998
   3498, 0.000257500011, 0.000150000007
   3499, 0.000257500011, 0.000155000002
   3500, 0.000257500011, 0.000159999996
   3501, 0.000257500011, 0.000165000005
   3502, 0.000257500011, 0.000169999999
   3503, 0.000257500011, 0.000174999994
   3504, 0.000257500011, 0.000180000003
   3505, 0.000257500011, 0.000184999997
   3506, 0.000257500011, 0.000190000006
   3507, 0.000257500011, 0.000195000001
   3508, 0.000255999999, 4.99999987e-06
   3509, 0.000255999999, 9.99999975e-06
   3510, 0.000255999999, 1.49999996e-05
   3511, 0.000255999999, 1.99999995e-05
   3512, 0.000255999999, 2.49999994e-05
   3513, 0.000255999999, 2.99999992e-05
   3514, 0.000255999999, 3.50000009e-05
   3515, 0.000255999999, 3.9999999e-05
   3516, 0.000255999999, 4.50000007e-05
   3517, 0.000255999999, 4.99999987e-05
   3518, 0.000255999999, 5.50000004e-05
   3519, 0.000255999999, 5.99999985e-05
   3520, 0.000255999999, 6.50000002e-05
   3521, 0.000255999999, 7.00000019e-05
   3522, 0.000255999999, 7.50000036e-05
   3523, 0.000255999999, 7.9999998e-05
   3524, 0.000255999999, 8.49999997e-05
   3525, 0.000255999999, 9.00000014e-05
   3526, 0.000255999999, 9.50000031e-05
   3527, 0.000255999999, 9.99999975e-05
   3528, 0.000255999999, 0.000104999999
   3529, 0.000255999999, 0.000110000001
   3530, 0.000255999999, 0.000115000003
   3531, 0.000255999999, 0.000119999997
   3532, 0.000255999999, 0.000125000006
   3533, 0.000255999999,      0.00013
   3534, 0.000255999999, 0.000134999995
   3535, 0.000255999999, 0.000140000004
   3536, 0.000255999999, 0.000144999998
   3537, 0.000255999999, 0.000150000007
   3538, 0.000255999999, 0.000155000002
   3539, 0.000255999999, 0.000159999996
   3540, 0.000255999999, 0.000165000005
   3541, 0.000255999999, 0.000169999999
   3542, 0.000255999999, 0.000174999994
   3543, 0.000255999999, 0.000180000003
   3544, 0.000255999999, 0.000184999997
   3545, 0.000255999999, 0.000190000006
   3546, 0.000255999999, 0.000195000001
   3547, 0.000254499988, 4.99999987e-06
   3548, 0.000254499988, 9.99999975e-06
   3549, 0.000254499988, 1.49999996e-05
   3550, 0.000254499988, 1.99999995e-05
   3551, 0.000254499988, 2.49999994e-05
   3552, 0.000254499988, 2.99999992e-05
   3553, 0.000254499988, 3.50000009e-05
   3554, 0.000254499988, 3.9999999e-05
   3555, 0.000254499988, 4.50000007e-05
   3556, 0.000254499988, 4.99999987e-05
   3557, 0.000254499988, 5.50000004e-05
   3558, 0.000254499988, 5.99999985e-05
   3559, 0.000254499988, 6.50000002e-05
   3560, 0.000254499988, 7.00000019e-05
   3561, 0.000254499988, 7.50000036e-05
   3562, 0.000254499988, 7.9999998e-05
   3563, 0.000254499988, 8.49999997e-05
   3564, 0.000254499988, 9.00000014e-05
   3565, 0.000254499988, 9.50000031e-05
   3566, 0.000254499988, 9.99999975e-05
   3567, 0.000254499988, 0.000104999999
   3568, 0.000254499988, 0.000110000001
   3569, 0.000254499988, 0.000115000003
   3570, 0.000254499988, 0.000119999997
   3571, 0.000254499988, 0.000125000006
   3572, 0.000254499988,      0.00013
   3573, 0.000254499988, 0.000134999995
   3574, 0.000254499988, 0.000140000004
   3575, 0.000254499988, 0.000144999998
   3576, 0.000254499988, 0.000150000007
   3577, 0.000254499988, 0.000155000002
   3578, 0.000254499988, 0.000159999996
   3579, 0.000254499988, 0.000165000005
   3580, 0.000254499988, 0.000169999999
   3581, 0.000254499988, 0.000174999994
   3582, 0.000254499988, 0.000180000003
   3583, 0.000254499988, 0.000184999997
   3584, 0.000254499988, 0.000190000006
   3585, 0.000254499988, 0.000195000001
   3586, 0.000253000006, 4.99999987e-06
   3587, 0.000253000006, 9.99999975e-06
   3588, 0.000253000006, 1.49999996e-05
   3589, 0.000253000006, 1.99999995e-05
   3590, 0.000253000006, 2.49999994e-05
   3591, 0.000253000006, 2.99999992e-05
   3592, 0.000253000006, 3.50000009e-05
   3593, 0.000253000006, 3.9999999e-05
   3594, 0.000253000006, 4.50000007e-05
   3595, 0.000253000006, 4.99999987e-05
   3596, 0.000253000006, 5.50000004e-05
   3597, 0.000253000006, 5.99999985e-05
   3598, 0.000253000006, 6.50000002e-05
   3599, 0.000253000006, 7.00000019e-05
   3600, 0.000253000006, 7.50000036e-05
   3601, 0.000253000006, 7.9999998e-05
   3602, 0.000253000006, 8.49999997e-05
   3603, 0.000253000006, 9.00000014e-05
   3604, 0.000253000006, 9.50000031e-05
   3605, 0.000253000006, 9.99999975e-05
   3606, 0.000253000006, 0.000104999999
   3607, 0.000253000006, 0.000110000001
   3608, 0.000253000006, 0.000115000003
   3609, 0.000253000006, 0.000119999997
   3610, 0.000253000006, 0.000125000006
   3611, 0.000253000006,      0.00013
   3612, 0.000253000006, 0.000134999995
   3613, 0.000253000006, 0.000140000004
   3614, 0.000253000006, 0.000144999998
   3615, 0.000253000006, 0.000150000007
   3616, 0.000253000006, 0.000155000002
   3617, 0.000253000006, 0.000159999996
   3618, 0.000253000006, 0.000165000005
   3619, 0.000253000006, 0.000169999999
   3620, 0.000253000006, 0.000174999994
   3621, 0.000253000006, 0.000180000003
   3622, 0.000253000006, 0.000184999997
   3623, 0.000253000006, 0.000190000006
   3624, 0.000253000006, 0.000195000001
   3625, 0.000251499994, 4.99999987e-06
   3626, 0.000251499994, 9.99999975e-06
   3627, 0.000251499994, 1.49999996e-05
   3628, 0.000251499994, 1.99999995e-05
   3629, 0.000251499994, 2.49999994e-05
   3630, 0.000251499994, 2.99999992e-05
   3631, 0.000251499994, 3.50000009e-05
   3632, 0.000251499994, 3.9999999e-05
   3633, 0.000251499994, 4.50000007e-05
   3634, 0.000251499994, 4.99999987e-05
   3635, 0.000251499994, 5.50000004e-05
   3636, 0.000251499994, 5.99999985e-05
   3637, 0.000251499994, 6.50000002e-05
   3638, 0.000251499994, 7.00000019e-05
   3639, 0.000251499994, 7.50000036e-05
   3640, 0.000251499994, 7.9999998e-05
   3641, 0.000251499994, 8.49999997e-05
   3642, 0.000251499994, 9.00000014e-05
   3643, 0.000251499994, 9.50000031e-05
   3644, 0.000251499994, 9.99999975e-05
   3645, 0.000251499994, 0.000104999999
   3646, 0.000251499994, 0.000110000001
   3647, 0.000251499994, 0.000115000003
   3648, 0.000251499994, 0.000119999997
   3649, 0.000251499994, 0.000125000006
   3650, 0.000251499994,      0.00013
   3651, 0.000251499994, 0.000134999995
   3652, 0.000251499994, 0.000140000004
   3653, 0.000251499994, 0.000144999998
   3654, 0.000251499994, 0.000150000007
   3655, 0.000251499994, 0.000155000002
   3656, 0.000251499994, 0.000159999996
   3657, 0.000251499994, 0.000165000005
   3658, 0.000251499994, 0.000169999999
   3659, 0.000251499994, 0.000174999994
   3660, 0.000251499994, 0.000180000003
   3661, 0.000251499994, 0.000184999997
   3662, 0.000251499994, 0.000190000006
   3663, 0.000251499994, 0.000195000001
   3664, 0.000250000012, 4.99999987e-06
   3665, 0.000250000012, 9.99999975e-06
   3666, 0.000250000012, 1.49999996e-05
   3667, 0.000250000012, 1.99999995e-05
   3668, 0.000250000012, 2.49999994e-05
   3669, 0.000250000012, 2.99999992e-05
   3670, 0.000250000012, 3.50000009e-05
   3671, 0.000250000012, 3.9999999e-05
   3672, 0.000250000012, 4.50000007e-05
   3673, 0.000250000012, 4.99999987e-05
   3674, 0.000250000012, 5.50000004e-05
   3675, 0.000250000012, 5.99999985e-05
   3676, 0.000250000012, 6.50000002e-05
   3677, 0.000250000012, 7.00000019e-05
   3678, 0.000250000012, 7.50000036e-05
   3679, 0.000250000012, 7.9999998e-05
   3680, 0.000250000012, 8.49999997e-05
   3681, 0.000250000012, 9.00000014e-05
   3682, 0.000250000012, 9.50000031e-05
   3683, 0.000250000012, 9.99999975e-05
   3684, 0.000250000012, 0.000104999999
   3685, 0.000250000012, 0.000110000001
   3686, 0.000250000012, 0.000115000003
   3687, 0.000250000012, 0.000119999997
   3688, 0.000250000012, 0.000125000006
   3689, 0.000250000012,      0.00013
   3690, 0.000250000012, 0.000134999995
   3691, 0.000250000012, 0.000140000004
   3692, 0.000250000012, 0.000144999998
   3693, 0.000250000012, 0.000150000007
   3694, 0.000250000012, 0.000155000002
   3695, 0.000250000012, 0.000159999996
   3696, 0.000250000012, 0.000165000005
   3697, 0.000250000012, 0.000169999999
   3698, 0.000250000012, 0.000174999994
   3699, 0.000250000012, 0.000180000003
   3700, 0.000250000012, 0.000184999997
   3701, 0.000250000012, 0.000190000006
   3702, 0.000250000012, 0.000195000001
   3703,    0.0002485, 4.99999987e-06
   3704,    0.0002485, 9.99999975e-06
   3705,    0.0002485, 1.49999996e-05
   3706,    0.0002485, 1.99999995e-05
   3707,    0.0002485, 2.49999994e-05
   3708,    0.0002485, 2.99999992e-05
   3709,    0.0002485, 3.50000009e-05
   3710,    0.0002485, 3.9999999e-05
   3711,    0.0002485, 4.50000007e-05
   3712,    0.0002485, 4.99999987e-05
   3713,    0.0002485, 5.50000004e-05
   3714,    0.0002485, 5.99999985e-05
   3715,    0.0002485, 6.50000002e-05
   3716,    0.0002485, 7.00000019e-05
   3717,    0.0002485, 7.50000036e-05
   3718,    0.0002485, 7.9999998e-05
   3719,    0.0002485, 8.49999997e-05
   3720,    0.0002485, 9.00000014e-05
   3721,    0.0002485, 9.50000031e-05
   3722,    0.0002485, 9.99999975e-05
   3723,    0.0002485, 0.000104999999
   3724,    0.0002485, 0.000110000001
   3725,    0.0002485, 0.000115000003
   3726,    0.0002485, 0.000119999997
   3727,    0.0002485, 0.000125000006
   3728,    0.0002485,      0.00013
   3729,    0.0002485, 0.000134999995
   3730,    0.0002485, 0.000140000004
   3731,    0.0002485, 0.000144999998
   3732,    0.0002485, 0.000150000007
   3733,    0.0002485, 0.000155000002
   3734,    0.0002485, 0.000159999996
   3735,    0.0002485, 0.000165000005
   3736,    0.0002485, 0.000169999999
   3737,    0.0002485, 0.000174999994
   3738,    0.0002485, 0.000180000003
   3739,    0.0002485, 0.000184999997
   3740,    0.0002485, 0.000190000006
   3741,    0.0002485, 0.000195000001
   3742, 0.000246999989, 4.99999987e-06
   3743, 0.000246999989, 9.99999975e-06
   3744, 0.000246999989, 1.49999996e-05
   3745, 0.000246999989, 1.99999995e-05
   3746, 0.000246999989, 2.49999994e-05
   3747, 0.000246999989, 2.99999992e-05
   3748, 0.000246999989, 3.50000009e-05
   3749, 0.000246999989, 3.9999999e-05
   3750, 0.000246999989, 4.50000007e-05
   3751, 0.000246999989, 4.99999987e-05
   3752, 0.000246999989, 5.50000004e-05
   3753, 0.000246999989, 5.99999985e-05
   3754, 0.000246999989, 6.50000002e-05
   3755, 0.000246999989, 7.00000019e-05
   3756, 0.000246999989, 7.50000036e-05
   3757, 0.000246999989, 7.9999998e-05
   3758, 0.000246999989, 8.49999997e-05
   3759, 0.000246999989, 9.00000014e-05
   3760, 0.000246999989, 9.50000031e-05
   3761, 0.000246999989, 9.99999975e-05
   3762, 0.000246999989, 0.000104999999
   3763, 0.000246999989, 0.000110000001
   3764, 0.000246999989, 0.000115000003
   3765, 0.000246999989, 0.000119999997
   3766, 0.000246999989, 0.000125000006
   3767, 0.000246999989,      0.00013
   3768, 0.000246999989, 0.000134999995
   3769, 0.000246999989, 0.000140000004
   3770, 0.000246999989, 0.000144999998
   3771, 0.000246999989, 0.000150000007
   3772, 0.000246999989, 0.000155000002
   3773, 0.000246999989, 0.000159999996
   3774, 0.000246999989, 0.000165000005
   3775, 0.000246999989, 0.000169999999
   3776, 0.000246999989, 0.000174999994
   3777, 0.000246999989, 0.000180000003
   3778, 0.000246999989, 0.000184999997
   3779, 0.000246999989, 0.000190000006
   3780, 0.000246999989, 0.000195000001
   3781, 0.000245500007, 4.99999987e-06
   3782, 0.000245500007, 9.99999975e-06
   3783, 0.000245500007, 1.49999996e-05
   3784, 0.000245500007, 1.99999995e-05
   3785, 0.000245500007, 2.49999994e-05
   3786, 0.000245500007, 2.99999992e-05
   3787, 0.000245500007, 3.50000009e-05
   3788, 0.000245500007, 3.9999999e-05
   3789, 0.000245500007, 4.50000007e-05
   3790, 0.000245500007, 4.99999987e-05
   3791, 0.000245500007, 5.50000004e-05
   3792, 0.000245500007, 5.99999985e-05
   3793, 0.000245500007, 6.50000002e-05
   3794, 0.000245500007, 7.00000019e-05
   3795, 0.000245500007, 7.50000036e-05
   3796, 0.000245500007, 7.9999998e-05
   3797, 0.000245500007, 8.49999997e-05
   3798, 0.000245500007, 9.00000014e-05
   3799, 0.000245500007, 9.50000031e-05
   3800, 0.000245500007, 9.99999975e-05
   3801, 0.000245500007, 0.000104999999
   3802, 0.000245500007, 0.000110000001
   3803, 0.000245500007, 0.000115000003
   3804, 0.000245500007, 0.000119999997
   3805, 0.000245500007, 0.000125000006
   3806, 0.000245500007,      0.00013
   3807, 0.000245500007, 0.000134999995
   3808, 0.000245500007, 0.000140000004
   3809, 0.000245500007, 0.000144999998
   3810, 0.000245500007, 0.000150000007
   3811, 0.000245500007, 0.000155000002
   3812, 0.000245500007, 0.000159999996
   3813, 0.000245500007, 0.000165000005
   3814, 0.000245500007, 0.000169999999
   3815, 0.000245500007, 0.000174999994
   3816, 0.000245500007, 0.000180000003
   3817, 0.000245500007, 0.000184999997
   3818, 0.000245500007, 0.000190000006
   3819, 0.000245500007, 0.000195000001
   3820, 0.000243999995, 4.99999987e-06
   3821, 0.000243999995, 9.99999975e-06
   3822, 0.000243999995, 1.49999996e-05
   3823, 0.000243999995, 1.99999995e-05
   3824, 0.000243999995, 2.49999994e-05
   3825, 0.000243999995, 2.99999992e-05
   3826, 0.000243999995, 3.50000009e-05
   3827, 0.000243999995, 3.9999999e-05
   3828, 0.000243999995, 4.50000007e-05
   3829, 0.000243999995, 4.99999987e-05
   3830, 0.000243999995, 5.50000004e-05
   3831, 0.000243999995, 5.99999985e-05
   3832, 0.000243999995, 6.50000002e-05
   3833, 0.000243999995, 7.00000019e-05
   3834, 0.000243999995, 7.50000036e-05
   3835, 0.000243999995, 7.9999998e-05
   3836, 0.000243999995, 8.49999997e-05
   3837, 0.000243999995, 9.00000014e-05
   3838, 0.000243999995, 9.50000031e-05
   3839, 0.000243999995, 9.99999975e-05
   3840, 0.000243999995, 0.000104999999
   3841, 0.000243999995, 0.000110000001
   3842, 0.000243999995, 0.000115000003
   3843, 0.000243999995, 0.000119999997
   3844, 0.000243999995, 0.000125000006
   3845, 0.000243999995,      0.00013
   3846, 0.000243999995, 0.000134999995
   3847, 0.000243999995, 0.000140000004
   3848, 0.000243999995, 0.000144999998
   3849, 0.000243999995, 0.000150000007
   3850, 0.000243999995, 0.000155000002
   3851, 0.000243999995, 0.000159999996
   3852, 0.000243999995, 0.000165000005
   3853, 0.000243999995, 0.000169999999
   3854, 0.000243999995, 0.000174999994
   3855, 0.000243999995, 0.000180000003
   3856, 0.000243999995, 0.000184999997
   3857, 0.000243999995, 0.000190000006
   3858, 0.000243999995, 0.000195000001
   3859, 0.000242499998, 4.99999987e-06
   3860, 0.000242499998, 9.99999975e-06
   3861, 0.000242499998, 1.49999996e-05
   3862, 0.000242499998, 1.99999995e-05
   3863, 0.000242499998, 2.49999994e-05
   3864, 0.000242499998, 2.99999992e-05
   3865, 0.000242499998, 3.50000009e-05
   3866, 0.000242499998, 3.9999999e-05
   3867, 0.000242499998, 4.50000007e-05
   3868, 0.000242499998, 4.99999987e-05
   3869, 0.000242499998, 5.50000004e-05
   3870, 0.000242499998, 5.99999985e-05
   3871, 0.000242499998, 6.50000002e-05
   3872, 0.000242499998, 7.00000019e-05
   3873, 0.000242499998, 7.50000036e-05
   3874, 0.000242499998, 7.9999998e-05
   3875, 0.000242499998, 8.49999997e-05
   3876, 0.000242499998, 9.00000014e-05
   3877, 0.000242499998, 9.50000031e-05
   3878, 0.000242499998, 9.99999975e-05
   3879, 0.000242499998, 0.000104999999
   3880, 0.000242499998, 0.000110000001
   3881, 0.000242499998, 0.000115000003
   3882, 0.000242499998, 0.000119999997
   3883, 0.000242499998, 0.000125000006
   3884, 0.000242499998,      0.00013
   3885, 0.000242499998, 0.000134999995
   3886, 0.000242499998, 0.000140000004
   3887, 0.000242499998, 0.000144999998
   3888, 0.000242499998, 0.000150000007
   3889, 0.000242499998, 0.000155000002
   3890, 0.000242499998, 0.000159999996
   3891, 0.000242499998, 0.000165000005
   3892, 0.000242499998, 0.000169999999
   3893, 0.000242499998, 0.000174999994
   3894, 0.000242499998, 0.000180000003
   3895, 0.000242499998, 0.000184999997
   3896, 0.000242499998, 0.000190000006
   3897, 0.000242499998, 0.000195000001
   3898, 0.000241000002, 4.99999987e-06
   3899, 0.000241000002, 9.99999975e-06
   3900, 0.000241000002, 1.49999996e-05
   3901, 0.000241000002, 1.99999995e-05
   3902, 0.000241000002, 2.49999994e-05
   3903, 0.000241000002, 2.99999992e-05
   3904, 0.000241000002, 3.50000009e-05
   3905, 0.000241000002, 3.9999999e-05
   3906, 0.000241000002, 4.50000007e-05
   3907, 0.000241000002, 4.99999987e-05
   3908, 0.000241000002, 5.50000004e-05
   3909, 0.000241000002, 5.99999985e-05
   3910, 0.000241000002, 6.50000002e-05
   3911, 0.000241000002, 7.00000019e-05
   3912, 0.000241000002, 7.50000036e-05
   3913, 0.000241000002, 7.9999998e-05
   3914, 0.000241000002, 8.49999997e-05
   3915, 0.000241000002, 9.00000014e-05
   3916, 0.000241000002, 9.50000031e-05
   3917, 0.000241000002, 9.99999975e-05
   3918, 0.000241000002, 0.000104999999
   3919, 0.000241000002, 0.000110000001
   3920, 0.000241000002, 0.000115000003
   3921, 0.000241000002, 0.000119999997
   3922, 0.000241000002, 0.000125000006
   3923, 0.000241000002,      0.00013
   3924, 0.000241000002, 0.000134999995
   3925, 0.000241000002, 0.000140000004
   3926, 0.000241000002, 0.000144999998
   3927, 0.000241000002, 0.000150000007
   3928, 0.000241000002, 0.000155000002
   3929, 0.000241000002, 0.000159999996
   3930, 0.000241000002, 0.000165000005
   3931, 0.000241000002, 0.000169999999
   3932, 0.000241000002, 0.000174999994
   3933, 0.000241000002, 0.000180000003
   3934, 0.000241000002, 0.000184999997
   3935, 0.000241000002, 0.000190000006
   3936, 0.000241000002, 0.000195000001
   3937, 0.000239500005, 4.99999987e-06
   3938, 0.000239500005, 9.99999975e-06
   3939, 0.000239500005, 1.49999996e-05
   3940, 0.000239500005, 1.99999995e-05
   3941, 0.000239500005, 2.49999994e-05
   3942, 0.000239500005, 2.99999992e-05
   3943, 0.000239500005, 3.50000009e-05
   3944, 0.000239500005, 3.9999999e-05
   3945, 0.000239500005, 4.50000007e-05
   3946, 0.000239500005, 4.99999987e-05
   3947, 0.000239500005, 5.50000004e-05
   3948, 0.000239500005, 5.99999985e-05
   3949, 0.000239500005, 6.50000002e-05
   3950, 0.000239500005, 7.00000019e-05
   3951, 0.000239500005, 7.50000036e-05
   3952, 0.000239500005, 7.9999998e-05
   3953, 0.000239500005, 8.49999997e-05
   3954, 0.000239500005, 9.00000014e-05
   3955, 0.000239500005, 9.50000031e-05
   3956, 0.000239500005, 9.99999975e-05
   3957, 0.000239500005, 0.000104999999
   3958, 0.000239500005, 0.000110000001
   3959, 0.000239500005, 0.000115000003
   3960, 0.000239500005, 0.000119999997
   3961, 0.000239500005, 0.000125000006
   3962, 0.000239500005,      0.00013
   3963, 0.000239500005, 0.000134999995
   3964, 0.000239500005, 0.000140000004
   3965, 0.000239500005, 0.000144999998
   3966, 0.000239500005, 0.000150000007
   3967, 0.000239500005, 0.000155000002
   3968, 0.000239500005, 0.000159999996
   3969, 0.000239500005, 0.000165000005
   3970, 0.000239500005, 0.000169999999
   3971, 0.000239500005, 0.000174999994
   3972, 0.000239500005, 0.000180000003
   3973, 0.000239500005, 0.000184999997
   3974, 0.000239500005, 0.000190000006
   3975, 0.000239500005, 0.000195000001
   3976, 0.000237999993, 4.99999987e-06
   3977, 0.000237999993, 9.99999975e-06
   3978, 0.000237999993, 1.49999996e-05
   3979, 0.000237999993, 1.99999995e-05
   3980, 0.000237999993, 2.49999994e-05
   3981, 0.000237999993, 2.99999992e-05
   3982, 0.000237999993, 3.50000009e-05
   3983, 0.000237999993, 3.9999999e-05
   3984, 0.000237999993, 4.50000007e-05
   3985, 0.000237999993, 4.99999987e-05
   3986, 0.000237999993, 5.50000004e-05
   3987, 0.000237999993, 5.99999985e-05
   3988, 0.000237999993, 6.50000002e-05
   3989, 0.000237999993, 7.00000019e-05
   3990, 0.000237999993, 7.50000036e-05
   3991, 0.000237999993, 7.9999998e-05
   3992, 0.000237999993, 8.49999997e-05
   3993, 0.000237999993, 9.00000014e-05
   3994, 0.000237999993, 9.50000031e-05
   3995, 0.000237999993, 9.99999975e-05
   3996, 0.000237999993, 0.000104999999
   3997, 0.000237999993, 0.000110000001
   3998, 0.000237999993, 0.000115000003
   3999, 0.000237999993, 0.000119999997
   4000, 0.000237999993, 0.000125000006
   4001, 0.000237999993,      0.00013
   4002, 0.000237999993, 0.000134999995
   4003, 0.000237999993, 0.000140000004
   4004, 0.000237999993, 0.000144999998
   4005, 0.000237999993, 0.000150000007
   4006, 0.000237999993, 0.000155000002
   4007, 0.000237999993, 0.000159999996
   4008, 0.000237999993, 0.000165000005
   4009, 0.000237999993, 0.000169999999
   4010, 0.000237999993, 0.000174999994
   4011, 0.000237999993, 0.000180000003
   4012, 0.000237999993, 0.000184999997
   4013, 0.000237999993, 0.000190000006
   4014, 0.000237999993, 0.000195000001
   4015, 0.000236499996, 4.99999987e-06
   4016, 0.000236499996, 9.99999975e-06
   4017, 0.000236499996, 1.49999996e-05
   4018, 0.000236499996, 1.99999995e-05
   4019, 0.000236499996, 2.49999994e-05
   4020, 0.000236499996, 2.99999992e-05
   4021, 0.000236499996, 3.50000009e-05
   4022, 0.000236499996, 3.9999999e-05
   4023, 0.000236499996, 4.50000007e-05
   4024, 0.000236499996, 4.99999987e-05
   4025, 0.000236499996, 5.50000004e-05
   4026, 0.000236499996, 5.99999985e-05
   4027, 0.000236499996, 6.50000002e-05
   4028, 0.000236499996, 7.00000019e-05
   4029, 0.000236499996, 7.50000036e-05
   4030, 0.000236499996, 7.9999998e-05
   4031, 0.000236499996, 8.49999997e-05
   4032, 0.000236499996, 9.00000014e-05
   4033, 0.000236499996, 9.50000031e-05
   4034, 0.000236499996, 9.99999975e-05
   4035, 0.000236499996, 0.000104999999
   4036, 0.000236499996, 0.000110000001
   4037, 0.000236499996, 0.000115000003
   4038, 0.000236499996, 0.000119999997
   4039, 0.000236499996, 0.000125000006
   4040, 0.000236499996,      0.00013
   4041, 0.000236499996, 0.000134999995
   4042, 0.000236499996, 0.000140000004
   4043, 0.000236499996, 0.000144999998
   4044, 0.000236499996, 0.000150000007
   4045, 0.000236499996, 0.000155000002
   4046, 0.000236499996, 0.000159999996
   4047, 0.000236499996, 0.000165000005
   4048, 0.000236499996, 0.000169999999
   4049, 0.000236499996, 0.000174999994
   4050, 0.000236499996, 0.000180000003
   4051, 0.000236499996, 0.000184999997
   4052, 0.000236499996, 0.000190000006
   4053, 0.000236499996, 0.000195000001
   4054,     0.000235, 4.99999987e-06
   4055,     0.000235, 9.99999975e-06
   4056,     0.000235, 1.49999996e-05
   4057,     0.000235, 1.99999995e-05
   4058,     0.000235, 2.49999994e-05
   4059,     0.000235, 2.99999992e-05
   4060,     0.000235, 3.50000009e-05
   4061,     0.000235, 3.9999999e-05
   4062,     0.000235, 4.50000007e-05
   4063,     0.000235, 4.99999987e-05
   4064,     0.000235, 5.50000004e-05
   4065,     0.000235, 5.99999985e-05
   4066,     0.000235, 6.50000002e-05
   4067,     0.000235, 7.00000019e-05
   4068,     0.000235, 7.50000036e-05
   4069,     0.000235, 7.9999998e-05
   4070,     0.000235, 8.49999997e-05
   4071,     0.000235, 9.00000014e-05
   4072,     0.000235, 9.50000031e-05
   4073,     0.000235, 9.99999975e-05
   4074,     0.000235, 0.000104999999
   4075,     0.000235, 0.000110000001
   4076,     0.000235, 0.000115000003
   4077,     0.000235, 0.000119999997
   4078,     0.000235, 0.000125000006
   4079,     0.000235,      0.00013
   4080,     0.000235, 0.000134999995
   4081,     0.000235, 0.000140000004
   4082,     0.000235, 0.000144999998
   4083,     0.000235, 0.000150000007
   4084,     0.000235, 0.000155000002
   4085,     0.000235, 0.000159999996
   4086,     0.000235, 0.000165000005
   4087,     0.000235, 0.000169999999
   4088,     0.000235, 0.000174999994
   4089,     0.000235, 0.000180000003
   4090,     0.000235, 0.000184999997
   4091,     0.000235, 0.000190000006
   4092,     0.000235, 0.000195000001
   4093, 0.000233500003, 4.99999987e-06
   4094, 0.000233500003, 9.99999975e-06
   4095, 0.000233500003, 1.49999996e-05
   4096, 0.000233500003, 1.99999995e-05
   4097, 0.000233500003, 2.49999994e-05
   4098, 0.000233500003, 2.99999992e-05
   4099, 0.000233500003, 3.50000009e-05
   4100, 0.000233500003, 3.9999999e-05
   4101, 0.000233500003, 4.50000007e-05
   4102, 0.000233500003, 4.99999987e-05
   4103, 0.000233500003, 5.50000004e-05
   4104, 0.000233500003, 5.99999985e-05
   4105, 0.000233500003, 6.50000002e-05
   4106, 0.000233500003, 7.00000019e-05
   4107, 0.000233500003, 7.50000036e-05
   4108, 0.000233500003, 7.9999998e-05
   4109, 0.000233500003, 8.49999997e-05
   4110, 0.000233500003, 9.00000014e-05
   4111, 0.000233500003, 9.50000031e-05
   4112, 0.000233500003, 9.99999975e-05
   4113, 0.000233500003, 0.000104999999
   4114, 0.000233500003, 0.000110000001
   4115, 0.000233500003, 0.000115000003
   4116, 0.000233500003, 0.000119999997
   4117, 0.000233500003, 0.000125000006
   4118, 0.000233500003,      0.00013
   4119, 0.000233500003, 0.000134999995
   4120, 0.000233500003, 0.000140000004
   4121, 0.000233500003, 0.000144999998
   4122, 0.000233500003, 0.000150000007
   4123, 0.000233500003, 0.000155000002
   4124, 0.000233500003, 0.000159999996
   4125, 0.000233500003, 0.000165000005
   4126, 0.000233500003, 0.000169999999
   4127, 0.000233500003, 0.000174999994
   4128, 0.000233500003, 0.000180000003
   4129, 0.000233500003, 0.000184999997
   4130, 0.000233500003, 0.000190000006
   4131, 0.000233500003, 0.000195000001
   4132, 0.000232000006, 4.99999987e-06
   4133, 0.000232000006, 9.99999975e-06
   4134, 0.000232000006, 1.49999996e-05
   4135, 0.000232000006, 1.99999995e-05
   4136, 0.000232000006, 2.49999994e-05
   4137, 0.000232000006, 2.99999992e-05
   4138, 0.000232000006, 3.50000009e-05
   4139, 0.000232000006, 3.9999999e-05
   4140, 0.000232000006, 4.50000007e-05
   4141, 0.000232000006, 4.99999987e-05
   4142, 0.000232000006, 5.50000004e-05
   4143, 0.000232000006, 5.99999985e-05
   4144, 0.000232000006, 6.50000002e-05
   4145, 0.000232000006, 7.00000019e-05
   4146, 0.000232000006, 7.50000036e-05
   4147, 0.000232000006, 7.9999998e-05
   4148, 0.000232000006, 8.49999997e-05
   4149, 0.000232000006, 9.00000014e-05
   4150, 0.000232000006, 9.50000031e-05
   4151, 0.000232000006, 9.99999975e-05
   4152, 0.000232000006, 0.000104999999
   4153, 0.000232000006, 0.000110000001
   4154, 0.000232000006, 0.000115000003
   4155, 0.000232000006, 0.000119999997
   4156, 0.000232000006, 0.000125000006
   4157, 0.000232000006,      0.00013
   4158, 0.000232000006, 0.000134999995
   4159, 0.000232000006, 0.000140000004
   4160, 0.000232000006, 0.000144999998
   4161, 0.000232000006, 0.000150000007
   4162, 0.000232000006, 0.000155000002
   4163, 0.000232000006, 0.000159999996
   4164, 0.000232000006, 0.000165000005
   4165, 0.000232000006, 0.000169999999
   4166, 0.000232000006, 0.000174999994
   4167, 0.000232000006, 0.000180000003
   4168, 0.000232000006, 0.000184999997
   4169, 0.000232000006, 0.000190000006
   4170, 0.000232000006, 0.000195000001
   4171, 0.000230499994, 4.99999987e-06
   4172, 0.000230499994, 9.99999975e-06
   4173, 0.000230499994, 1.49999996e-05
   4174, 0.000230499994, 1.99999995e-05
   4175, 0.000230499994, 2.49999994e-05
   4176, 0.000230499994, 2.99999992e-05
   4177, 0.000230499994, 3.50000009e-05
   4178, 0.000230499994, 3.9999999e-05
   4179, 0.000230499994, 4.50000007e-05
   4180, 0.000230499994, 4.99999987e-05
   4181, 0.000230499994, 5.50000004e-05
   4182, 0.000230499994, 5.99999985e-05
   4183, 0.000230499994, 6.50000002e-05
   4184, 0.000230499994, 7.00000019e-05
   4185, 0.000230499994, 7.50000036e-05
   4186, 0.000230499994, 7.9999998e-05
   4187, 0.000230499994, 8.49999997e-05
   4188, 0.000230499994, 9.00000014e-05
   4189, 0.000230499994, 9.50000031e-05
   4190, 0.000230499994, 9.99999975e-05
   4191, 0.000230499994, 0.000104999999
   4192, 0.000230499994, 0.000110000001
   4193, 0.000230499994, 0.000115000003
   4194, 0.000230499994, 0.000119999997
   4195, 0.000230499994, 0.000125000006
   4196, 0.000230499994,      0.00013
   4197, 0.000230499994, 0.000134999995
   4198, 0.000230499994, 0.000140000004
   4199, 0.000230499994, 0.000144999998
   4200, 0.000230499994, 0.000150000007
   4201, 0.000230499994, 0.000155000002
   4202, 0.000230499994, 0.000159999996
   4203, 0.000230499994, 0.000165000005
   4204, 0.000230499994, 0.000169999999
   4205, 0.000230499994, 0.000174999994
   4206, 0.000230499994, 0.000180000003
   4207, 0.000230499994, 0.000184999997
   4208, 0.000230499994, 0.000190000006
   4209, 0.000230499994, 0.000195000001
   4210, 0.000228999997, 4.99999987e-06
   4211, 0.000228999997, 9.99999975e-06
   4212, 0.000228999997, 1.49999996e-05
   4213, 0.000228999997, 1.99999995e-05
   4214, 0.000228999997, 2.49999994e-05
   4215, 0.000228999997, 2.99999992e-05
   4216, 0.000228999997, 3.50000009e-05
   4217, 0.000228999997, 3.9999999e-05
   4218, 0.000228999997, 4.50000007e-05
   4219, 0.000228999997, 4.99999987e-05
   4220, 0.000228999997, 5.50000004e-05
   4221, 0.000228999997, 5.99999985e-05
   4222, 0.000228999997, 6.50000002e-05
   4223, 0.000228999997, 7.00000019e-05
   4224, 0.000228999997, 7.50000036e-05
   4225, 0.000228999997, 7.9999998e-05
   4226, 0.000228999997, 8.49999997e-05
   4227, 0.000228999997, 9.00000014e-05
   4228, 0.000228999997, 9.50000031e-05
   4229, 0.000228999997, 9.99999975e-05
   4230, 0.000228999997, 0.000104999999
   4231, 0.000228999997, 0.000110000001
   4232, 0.000228999997, 0.000115000003
   4233, 0.000228999997, 0.000119999997
   4234, 0.000228999997, 0.000125000006
   4235, 0.000228999997,      0.00013
   4236, 0.000228999997, 0.000134999995
   4237, 0.000228999997, 0.000140000004
   4238, 0.000228999997, 0.000144999998
   4239, 0.000228999997, 0.000150000007
   4240, 0.000228999997, 0.000155000002
   4241, 0.000228999997, 0.000159999996
   4242, 0.000228999997, 0.000165000005
   4243, 0.000228999997, 0.000169999999
   4244, 0.000228999997, 0.000174999994
   4245, 0.000228999997, 0.000180000003
   4246, 0.000228999997, 0.000184999997
   4247, 0.000228999997, 0.000190000006
   4248, 0.000228999997, 0.000195000001
   4249, 0.000227500001, 4.99999987e-06
   4250, 0.000227500001, 9.99999975e-06
   4251, 0.000227500001, 1.49999996e-05
   4252, 0.000227500001, 1.99999995e-05
   4253, 0.000227500001, 2.49999994e-05
   4254, 0.000227500001, 2.99999992e-05
   4255, 0.000227500001, 3.50000009e-05
   4256, 0.000227500001, 3.9999999e-05
   4257, 0.000227500001, 4.50000007e-05
   4258, 0.000227500001, 4.99999987e-05
   4259, 0.000227500001, 5.50000004e-05
   4260, 0.000227500001, 5.99999985e-05
   4261, 0.000227500001, 6.50000002e-05
   4262, 0.000227500001, 7.00000019e-05
   4263, 0.000227500001, 7.50000036e-05
   4264, 0.000227500001, 7.9999998e-05
   4265, 0.000227500001, 8.49999997e-05
   4266, 0.000227500001, 9.00000014e-05
   4267, 0.000227500001, 9.50000031e-05
   4268, 0.000227500001, 9.99999975e-05
   4269, 0.000227500001, 0.000104999999
   4270, 0.000227500001, 0.000110000001
   4271, 0.000227500001, 0.000115000003
   4272, 0.000227500001, 0.000119999997
   4273, 0.000227500001, 0.000125000006
   4274, 0.000227500001,      0.00013
   4275, 0.000227500001, 0.000134999995
   4276, 0.000227500001, 0.000140000004
   4277, 0.000227500001, 0.000144999998
   4278, 0.000227500001, 0.000150000007
   4279, 0.000227500001, 0.000155000002
   4280, 0.000227500001, 0.000159999996
   4281, 0.000227500001, 0.000165000005
   4282, 0.000227500001, 0.000169999999
   4283, 0.000227500001, 0.000174999994
   4284, 0.000227500001, 0.000180000003
   4285, 0.000227500001, 0.000184999997
   4286, 0.000227500001, 0.000190000006
   4287, 0.000227500001, 0.000195000001
   4288, 0.000226000004, 4.99999987e-06
   4289, 0.000226000004, 9.99999975e-06
   4290, 0.000226000004, 1.49999996e-05
   4291, 0.000226000004, 1.99999995e-05
   4292, 0.000226000004, 2.49999994e-05
   4293, 0.000226000004, 2.99999992e-05
   4294, 0.000226000004, 3.50000009e-05
   4295, 0.000226000004, 3.9999999e-05
   4296, 0.000226000004, 4.50000007e-05
   4297, 0.000226000004, 4.99999987e-05
   4298, 0.000226000004, 5.50000004e-05
   4299, 0.000226000004, 5.99999985e-05
   4300, 0.000226000004, 6.50000002e-05
   4301, 0.000226000004, 7.00000019e-05
   4302, 0.000226000004, 7.50000036e-05
   4303, 0.000226000004, 7.9999998e-05
   4304, 0.000226000004, 8.49999997e-05
   4305, 0.000226000004, 9.00000014e-05
   4306, 0.000226000004, 9.50000031e-05
   4307, 0.000226000004, 9.99999975e-05
   4308, 0.000226000004, 0.000104999999
   4309, 0.000226000004, 0.000110000001
   4310, 0.000226000004, 0.000115000003
   4311, 0.000226000004, 0.000119999997
   4312, 0.000226000004, 0.000125000006
   4313, 0.000226000004,      0.00013
   4314, 0.000226000004, 0.000134999995
   4315, 0.000226000004, 0.000140000004
   4316, 0.000226000004, 0.000144999998
   4317, 0.000226000004, 0.000150000007
   4318, 0.000226000004, 0.000155000002
   4319, 0.000226000004, 0.000159999996
   4320, 0.000226000004, 0.000165000005
   4321, 0.000226000004, 0.000169999999
   4322, 0.000226000004, 0.000174999994
   4323, 0.000226000004, 0.000180000003
   4324, 0.000226000004, 0.000184999997
   4325, 0.000226000004, 0.000190000006
   4326, 0.000226000004, 0.000195000001
   4327, 0.000224500007, 4.99999987e-06
   4328, 0.000224500007, 9.99999975e-06
   4329, 0.000224500007, 1.49999996e-05
   4330, 0.000224500007, 1.99999995e-05
   4331, 0.000224500007, 2.49999994e-05
   4332, 0.000224500007, 2.99999992e-05
   4333, 0.000224500007, 3.50000009e-05
   4334, 0.000224500007, 3.9999999e-05
   4335, 0.000224500007, 4.50000007e-05
   4336, 0.000224500007, 4.99999987e-05
   4337, 0.000224500007, 5.50000004e-05
   4338, 0.000224500007, 5.99999985e-05
   4339, 0.000224500007, 6.50000002e-05
   4340, 0.000224500007, 7.00000019e-05
   4341, 0.000224500007, 7.50000036e-05
   4342, 0.000224500007, 7.9999998e-05
   4343, 0.000224500007, 8.49999997e-05
   4344, 0.000224500007, 9.00000014e-05
   4345, 0.000224500007, 9.50000031e-05
   4346, 0.000224500007, 9.99999975e-05
   4347, 0.000224500007, 0.000104999999
   4348, 0.000224500007, 0.000110000001
   4349, 0.000224500007, 0.000115000003
   4350, 0.000224500007, 0.000119999997
   4351, 0.000224500007, 0.000125000006
   4352, 0.000224500007,      0.00013
   4353, 0.000224500007, 0.000134999995
   4354, 0.000224500007, 0.000140000004
   4355, 0.000224500007, 0.000144999998
   4356, 0.000224500007, 0.000150000007
   4357, 0.000224500007, 0.000155000002
   4358, 0.000224500007, 0.000159999996
   4359, 0.000224500007, 0.000165000005
   4360, 0.000224500007, 0.000169999999
   4361, 0.000224500007, 0.000174999994
   4362, 0.000224500007, 0.000180000003
   4363, 0.000224500007, 0.000184999997
   4364, 0.000224500007, 0.000190000006
   4365, 0.000224500007, 0.000195000001
   4366, 0.000222999995, 4.99999987e-06
   4367, 0.000222999995, 9.99999975e-06
   4368, 0.000222999995, 1.49999996e-05
   4369, 0.000222999995, 1.99999995e-05
   4370, 0.000222999995, 2.49999994e-05
   4371, 0.000222999995, 2.99999992e-05
   4372, 0.000222999995, 3.50000009e-05
   4373, 0.000222999995, 3.9999999e-05
   4374, 0.000222999995, 4.50000007e-05
   4375, 0.000222999995, 4.99999987e-05
   4376, 0.000222999995, 5.50000004e-05
   4377, 0.000222999995, 5.99999985e-05
   4378, 0.000222999995, 6.50000002e-05
   4379, 0.000222999995, 7.00000019e-05
   4380, 0.000222999995, 7.50000036e-05
   4381, 0.000222999995, 7.9999998e-05
   4382, 0.000222999995, 8.49999997e-05
   4383, 0.000222999995, 9.00000014e-05
   4384, 0.000222999995, 9.50000031e-05
   4385, 0.000222999995, 9.99999975e-05
   4386, 0.000222999995, 0.000104999999
   4387, 0.000222999995, 0.000110000001
   4388, 0.000222999995, 0.000115000003
   4389, 0.000222999995, 0.000119999997
   4390, 0.000222999995, 0.000125000006
   4391, 0.000222999995,      0.00013
   4392, 0.000222999995, 0.000134999995
   4393, 0.000222999995, 0.000140000004
   4394, 0.000222999995, 0.000144999998
   4395, 0.000222999995, 0.000150000007
   4396, 0.000222999995, 0.000155000002
   4397, 0.000222999995, 0.000159999996
   4398, 0.000222999995, 0.000165000005
   4399, 0.000222999995, 0.000169999999
   4400, 0.000222999995, 0.000174999994
   4401, 0.000222999995, 0.000180000003
   4402, 0.000222999995, 0.000184999997
   4403, 0.000222999995, 0.000190000006
   4404, 0.000222999995, 0.000195000001
   4405, 0.000221499999, 4.99999987e-06
   4406, 0.000221499999, 9.99999975e-06
   4407, 0.000221499999, 1.49999996e-05
   4408, 0.000221499999, 1.99999995e-05
   4409, 0.000221499999, 2.49999994e-05
   4410, 0.000221499999, 2.99999992e-05
   4411, 0.000221499999, 3.50000009e-05
   4412, 0.000221499999, 3.9999999e-05
   4413, 0.000221499999, 4.50000007e-05
   4414, 0.000221499999, 4.99999987e-05
   4415, 0.000221499999, 5.50000004e-05
   4416, 0.000221499999, 5.99999985e-05
   4417, 0.000221499999, 6.50000002e-05
   4418, 0.000221499999, 7.00000019e-05
   4419, 0.000221499999, 7.50000036e-05
   4420, 0.000221499999, 7.9999998e-05
   4421, 0.000221499999, 8.49999997e-05
   4422, 0.000221499999, 9.00000014e-05
   4423, 0.000221499999, 9.50000031e-05
   4424, 0.000221499999, 9.99999975e-05
   4425, 0.000221499999, 0.000104999999
   4426, 0.000221499999, 0.000110000001
   4427, 0.000221499999, 0.000115000003
   4428, 0.000221499999, 0.000119999997
   4429, 0.000221499999, 0.000125000006
   4430, 0.000221499999,      0.00013
   4431, 0.000221499999, 0.000134999995
   4432, 0.000221499999, 0.000140000004
   4433, 0.000221499999, 0.000144999998
   4434, 0.000221499999, 0.000150000007
   4435, 0.000221499999, 0.000155000002
   4436, 0.000221499999, 0.000159999996
   4437, 0.000221499999, 0.000165000005
   4438, 0.000221499999, 0.000169999999
   4439, 0.000221499999, 0.000174999994
   4440, 0.000221499999, 0.000180000003
   4441, 0.000221499999, 0.000184999997
   4442, 0.000221499999, 0.000190000006
   4443, 0.000221499999, 0.000195000001
   4444, 0.000220000002, 4.99999987e-06
   4445, 0.000220000002, 9.99999975e-06
   4446, 0.000220000002, 1.49999996e-05
   4447, 0.000220000002, 1.99999995e-05
   4448, 0.000220000002, 2.49999994e-05
   4449, 0.000220000002, 2.99999992e-05
   4450, 0.000220000002, 3.50000009e-05
   4451, 0.000220000002, 3.9999999e-05
   4452, 0.000220000002, 4.50000007e-05
   4453, 0.000220000002, 4.99999987e-05
   4454, 0.000220000002, 5.50000004e-05
   4455, 0.000220000002, 5.99999985e-05
   4456, 0.000220000002, 6.50000002e-05
   4457, 0.000220000002, 7.00000019e-05
   4458, 0.000220000002, 7.50000036e-05
   4459, 0.000220000002, 7.9999998e-05
   4460, 0.000220000002, 8.49999997e-05
   4461, 0.000220000002, 9.00000014e-05
   4462, 0.000220000002, 9.50000031e-05
   4463, 0.000220000002, 9.99999975e-05
   4464, 0.000220000002, 0.000104999999
   4465, 0.000220000002, 0.000110000001
   4466, 0.000220000002, 0.000115000003
   4467, 0.000220000002, 0.000119999997
   4468, 0.000220000002, 0.000125000006
   4469, 0.000220000002,      0.00013
   4470, 0.000220000002, 0.000134999995
   4471, 0.000220000002, 0.000140000004
   4472, 0.000220000002, 0.000144999998
   4473, 0.000220000002, 0.000150000007
   4474, 0.000220000002, 0.000155000002
   4475, 0.000220000002, 0.000159999996
   4476, 0.000220000002, 0.000165000005
   4477, 0.000220000002, 0.000169999999
   4478, 0.000220000002, 0.000174999994
   4479, 0.000220000002, 0.000180000003
   4480, 0.000220000002, 0.000184999997
   4481, 0.000220000002, 0.000190000006
   4482, 0.000220000002, 0.000195000001
   4483, 0.000218500005, 4.99999987e-06
   4484, 0.000218500005, 9.99999975e-06
   4485, 0.000218500005, 1.49999996e-05
   4486, 0.000218500005, 1.99999995e-05
   4487, 0.000218500005, 2.49999994e-05
   4488, 0.000218500005, 2.99999992e-05
   4489, 0.000218500005, 3.50000009e-05
   4490, 0.000218500005, 3.9999999e-05
   4491, 0.000218500005, 4.50000007e-05
   4492, 0.000218500005, 4.99999987e-05
   4493, 0.000218500005, 5.50000004e-05
   4494, 0.000218500005, 5.99999985e-05
   4495, 0.000218500005, 6.50000002e-05
   4496, 0.000218500005, 7.00000019e-05
   4497, 0.000218500005, 7.50000036e-05
   4498, 0.000218500005, 7.9999998e-05
   4499, 0.000218500005, 8.49999997e-05
   4500, 0.000218500005, 9.00000014e-05
   4501, 0.000218500005, 9.50000031e-05
   4502, 0.000218500005, 9.99999975e-05
   4503, 0.000218500005, 0.000104999999
   4504, 0.000218500005, 0.000110000001
   4505, 0.000218500005, 0.000115000003
   4506, 0.000218500005, 0.000119999997
   4507, 0.000218500005, 0.000125000006
   4508, 0.000218500005,      0.00013
   4509, 0.000218500005, 0.000134999995
   4510, 0.000218500005, 0.000140000004
   4511, 0.000218500005, 0.000144999998
   4512, 0.000218500005, 0.000150000007
   4513, 0.000218500005, 0.000155000002
   4514, 0.000218500005, 0.000159999996
   4515, 0.000218500005, 0.000165000005
   4516, 0.000218500005, 0.000169999999
   4517, 0.000218500005, 0.000174999994
   4518, 0.000218500005, 0.000180000003
   4519, 0.000218500005, 0.000184999997
   4520, 0.000218500005, 0.000190000006
   4521, 0.000218500005, 0.000195000001
   4522, 0.000216999993, 4.99999987e-06
   4523, 0.000216999993, 9.99999975e-06
   4524, 0.000216999993, 1.49999996e-05
   4525, 0.000216999993, 1.99999995e-05
   4526, 0.000216999993, 2.49999994e-05
   4527, 0.000216999993, 2.99999992e-05
   4528, 0.000216999993, 3.50000009e-05
   4529, 0.000216999993, 3.9999999e-05
   4530, 0.000216999993, 4.50000007e-05
   4531, 0.000216999993, 4.99999987e-05
   4532, 0.000216999993, 5.50000004e-05
   4533, 0.000216999993, 5.99999985e-05
   4534, 0.000216999993, 6.50000002e-05
   4535, 0.000216999993, 7.00000019e-05
   4536, 0.000216999993, 7.50000036e-05
   4537, 0.000216999993, 7.9999998e-05
   4538, 0.000216999993, 8.49999997e-05
   4539, 0.000216999993, 9.00000014e-05
   4540, 0.000216999993, 9.50000031e-05
   4541, 0.000216999993, 9.99999975e-05
   4542, 0.000216999993, 0.000104999999
   4543, 0.000216999993, 0.000110000001
   4544, 0.000216999993, 0.000115000003
   4545, 0.000216999993, 0.000119999997
   4546, 0.000216999993, 0.000125000006
   4547, 0.000216999993,      0.00013
   4548, 0.000216999993, 0.000134999995
   4549, 0.000216999993, 0.000140000004
   4550, 0.000216999993, 0.000144999998
   4551, 0.000216999993, 0.000150000007
   4552, 0.000216999993, 0.000155000002
   4553, 0.000216999993, 0.000159999996
   4554, 0.000216999993, 0.000165000005
   4555, 0.000216999993, 0.000169999999
   4556, 0.000216999993, 0.000174999994
   4557, 0.000216999993, 0.000180000003
   4558, 0.000216999993, 0.000184999997
   4559, 0.000216999993, 0.000190000006
   4560, 0.000216999993, 0.000195000001
   4561, 0.000215499997, 4.99999987e-06
   4562, 0.000215499997, 9.99999975e-06
   4563, 0.000215499997, 1.49999996e-05
   4564, 0.000215499997, 1.99999995e-05
   4565, 0.000215499997, 2.49999994e-05
   4566, 0.000215499997, 2.99999992e-05
   4567, 0.000215499997, 3.50000009e-05
   4568, 0.000215499997, 3.9999999e-05
   4569, 0.000215499997, 4.50000007e-05
   4570, 0.000215499997, 4.99999987e-05
   4571, 0.000215499997, 5.50000004e-05
   4572, 0.000215499997, 5.99999985e-05
   4573, 0.000215499997, 6.50000002e-05
   4574, 0.000215499997, 7.00000019e-05
   4575, 0.000215499997, 7.50000036e-05
   4576, 0.000215499997, 7.9999998e-05
   4577, 0.000215499997, 8.49999997e-05
   4578, 0.000215499997, 9.00000014e-05
   4579, 0.000215499997, 9.50000031e-05
   4580, 0.000215499997, 9.99999975e-05
   4581, 0.000215499997, 0.000104999999
   4582, 0.000215499997, 0.000110000001
   4583, 0.000215499997, 0.000115000003
   4584, 0.000215499997, 0.000119999997
   4585, 0.000215499997, 0.000125000006
   4586, 0.000215499997,      0.00013
   4587, 0.000215499997, 0.000134999995
   4588, 0.000215499997, 0.000140000004
   4589, 0.000215499997, 0.000144999998
   4590, 0.000215499997, 0.000150000007
   4591, 0.000215499997, 0.000155000002
   4592, 0.000215499997, 0.000159999996
   4593, 0.000215499997, 0.000165000005
   4594, 0.000215499997, 0.000169999999
   4595, 0.000215499997, 0.000174999994
   4596, 0.000215499997, 0.000180000003
   4597, 0.000215499997, 0.000184999997
   4598, 0.000215499997, 0.000190000006
   4599, 0.000215499997, 0.000195000001
   4600,     0.000214, 4.99999987e-06
   4601,     0.000214, 9.99999975e-06
   4602,     0.000214, 1.49999996e-05
   4603,     0.000214, 1.99999995e-05
   4604,     0.000214, 2.49999994e-05
   4605,     0.000214, 2.99999992e-05
   4606,     0.000214, 3.50000009e-05
   4607,     0.000214, 3.9999999e-05
   4608,     0.000214, 4.50000007e-05
   4609,     0.000214, 4.99999987e-05
   4610,     0.000214, 5.50000004e-05
   4611,     0.000214, 5.99999985e-05
   4612,     0.000214, 6.50000002e-05
   4613,     0.000214, 7.00000019e-05
   4614,     0.000214, 7.50000036e-05
   4615,     0.000214, 7.9999998e-05
   4616,     0.000214, 8.49999997e-05
   4617,     0.000214, 9.00000014e-05
   4618,     0.000214, 9.50000031e-05
   4619,     0.000214, 9.99999975e-05
   4620,     0.000214, 0.000104999999
   4621,     0.000214, 0.000110000001
   4622,     0.000214, 0.000115000003
   4623,     0.000214, 0.000119999997
   4624,     0.000214, 0.000125000006
   4625,     0.000214,      0.00013
   4626,     0.000214, 0.000134999995
   4627,     0.000214, 0.000140000004
   4628,     0.000214, 0.000144999998
   4629,     0.000214, 0.000150000007
   4630,     0.000214, 0.000155000002
   4631,     0.000214, 0.000159999996
   4632,     0.000214, 0.000165000005
   4633,     0.000214, 0.000169999999
   4634,     0.000214, 0.000174999994
   4635,     0.000214, 0.000180000003
   4636,     0.000214, 0.000184999997
   4637,     0.000214, 0.000190000006
   4638,     0.000214, 0.000195000001
   4639, 0.000212500003, 4.99999987e-06
   4640, 0.000212500003, 9.99999975e-06
   4641, 0.000212500003, 1.49999996e-05
   4642, 0.000212500003, 1.99999995e-05
   4643, 0.000212500003, 2.49999994e-05
   4644, 0.000212500003, 2.99999992e-05
   4645, 0.000212500003, 3.50000009e-05
   4646, 0.000212500003, 3.9999999e-05
   4647, 0.000212500003, 4.50000007e-05
   4648, 0.000212500003, 4.99999987e-05
   4649, 0.000212500003, 5.50000004e-05
   4650, 0.000212500003, 5.99999985e-05
   4651, 0.000212500003, 6.50000002e-05
   4652, 0.000212500003, 7.00000019e-05
   4653, 0.000212500003, 7.50000036e-05
   4654, 0.000212500003, 7.9999998e-05
   4655, 0.000212500003, 8.49999997e-05
   4656, 0.000212500003, 9.00000014e-05
   4657, 0.000212500003, 9.50000031e-05
   4658, 0.000212500003, 9.99999975e-05
   4659, 0.000212500003, 0.000104999999
   4660, 0.000212500003, 0.000110000001
   4661, 0.000212500003, 0.000115000003
   4662, 0.000212500003, 0.000119999997
   4663, 0.000212500003, 0.000125000006
   4664, 0.000212500003,      0.00013
   4665, 0.000212500003, 0.000134999995
   4666, 0.000212500003, 0.000140000004
   4667, 0.000212500003, 0.000144999998
   4668, 0.000212500003, 0.000150000007
   4669, 0.000212500003, 0.000155000002
   4670, 0.000212500003, 0.000159999996
   4671, 0.000212500003, 0.000165000005
   4672, 0.000212500003, 0.000169999999
   4673, 0.000212500003, 0.000174999994
   4674, 0.000212500003, 0.000180000003
   4675, 0.000212500003, 0.000184999997
   4676, 0.000212500003, 0.000190000006
   4677, 0.000212500003, 0.000195000001
   4678, 0.000211000006, 4.99999987e-06
   4679, 0.000211000006, 9.99999975e-06
   4680, 0.000211000006, 1.49999996e-05
   4681, 0.000211000006, 1.99999995e-05
   4682, 0.000211000006, 2.49999994e-05
   4683, 0.000211000006, 2.99999992e-05
   4684, 0.000211000006, 3.50000009e-05
   4685, 0.000211000006, 3.9999999e-05
   4686, 0.000211000006, 4.50000007e-05
   4687, 0.000211000006, 4.99999987e-05
   4688, 0.000211000006, 5.50000004e-05
   4689, 0.000211000006, 5.99999985e-05
   4690, 0.000211000006, 6.50000002e-05
   4691, 0.000211000006, 7.00000019e-05
   4692, 0.000211000006, 7.50000036e-05
   4693, 0.000211000006, 7.9999998e-05
   4694, 0.000211000006, 8.49999997e-05
   4695, 0.000211000006, 9.00000014e-05
   4696, 0.000211000006, 9.50000031e-05
   4697, 0.000211000006, 9.99999975e-05
   4698, 0.000211000006, 0.000104999999
   4699, 0.000211000006, 0.000110000001
   4700, 0.000211000006, 0.000115000003
   4701, 0.000211000006, 0.000119999997
   4702, 0.000211000006, 0.000125000006
   4703, 0.000211000006,      0.00013
   4704, 0.000211000006, 0.000134999995
   4705, 0.000211000006, 0.000140000004
   4706, 0.000211000006, 0.000144999998
   4707, 0.000211000006, 0.000150000007
   4708, 0.000211000006, 0.000155000002
   4709, 0.000211000006, 0.000159999996
   4710, 0.000211000006, 0.000165000005
   4711, 0.000211000006, 0.000169999999
   4712, 0.000211000006, 0.000174999994
   4713, 0.000211000006, 0.000180000003
   4714, 0.000211000006, 0.000184999997
   4715, 0.000211000006, 0.000190000006
   4716, 0.000211000006, 0.000195000001
   4717, 0.000209499995, 4.99999987e-06
   4718, 0.000209499995, 9.99999975e-06
   4719, 0.000209499995, 1.49999996e-05
   4720, 0.000209499995, 1.99999995e-05
   4721, 0.000209499995, 2.49999994e-05
   4722, 0.000209499995, 2.99999992e-05
   4723, 0.000209499995, 3.50000009e-05
   4724, 0.000209499995, 3.9999999e-05
   4725, 0.000209499995, 4.50000007e-05
   4726, 0.000209499995, 4.99999987e-05
   4727, 0.000209499995, 5.50000004e-05
   4728, 0.000209499995, 5.99999985e-05
   4729, 0.000209499995, 6.50000002e-05
   4730, 0.000209499995, 7.00000019e-05
   4731, 0.000209499995, 7.50000036e-05
   4732, 0.000209499995, 7.9999998e-05
   4733, 0.000209499995, 8.49999997e-05
   4734, 0.000209499995, 9.00000014e-05
   4735, 0.000209499995, 9.50000031e-05
   4736, 0.000209499995, 9.99999975e-05
   4737, 0.000209499995, 0.000104999999
   4738, 0.000209499995, 0.000110000001
   4739, 0.000209499995, 0.000115000003
   4740, 0.000209499995, 0.000119999997
   4741, 0.000209499995, 0.000125000006
   4742, 0.000209499995,      0.00013
   4743, 0.000209499995, 0.000134999995
   4744, 0.000209499995, 0.000140000004
   4745, 0.000209499995, 0.000144999998
   4746, 0.000209499995, 0.000150000007
   4747, 0.000209499995, 0.000155000002
   4748, 0.000209499995, 0.000159999996
   4749, 0.000209499995, 0.000165000005
   4750, 0.000209499995, 0.000169999999
   4751, 0.000209499995, 0.000174999994
   4752, 0.000209499995, 0.000180000003
   4753, 0.000209499995, 0.000184999997
   4754, 0.000209499995, 0.000190000006
   4755, 0.000209499995, 0.000195000001
   4756, 0.000207999998, 4.99999987e-06
   4757, 0.000207999998, 9.99999975e-06
   4758, 0.000207999998, 1.49999996e-05
   4759, 0.000207999998, 1.99999995e-05
   4760, 0.000207999998, 2.49999994e-05
   4761, 0.000207999998, 2.99999992e-05
   4762, 0.000207999998, 3.50000009e-05
   4763, 0.000207999998, 3.9999999e-05
   4764, 0.000207999998, 4.50000007e-05
   4765, 0.000207999998, 4.99999987e-05
   4766, 0.000207999998, 5.50000004e-05
   4767, 0.000207999998, 5.99999985e-05
   4768, 0.000207999998, 6.50000002e-05
   4769, 0.000207999998, 7.00000019e-05
   4770, 0.000207999998, 7.50000036e-05
   4771, 0.000207999998, 7.9999998e-05
   4772, 0.000207999998, 8.49999997e-05
   4773, 0.000207999998, 9.00000014e-05
   4774, 0.000207999998, 9.50000031e-05
   4775, 0.000207999998, 9.99999975e-05
   4776, 0.000207999998, 0.000104999999
   4777, 0.000207999998, 0.000110000001
   4778, 0.000207999998, 0.000115000003
   4779, 0.000207999998, 0.000119999997
   4780, 0.000207999998, 0.000125000006
   4781, 0.000207999998,      0.00013
   4782, 0.000207999998, 0.000134999995
   4783, 0.000207999998, 0.000140000004
   4784, 0.000207999998, 0.000144999998
   4785, 0.000207999998, 0.000150000007
   4786, 0.000207999998, 0.000155000002
   4787, 0.000207999998, 0.000159999996
   4788, 0.000207999998, 0.000165000005
   4789, 0.000207999998, 0.000169999999
   4790, 0.000207999998, 0.000174999994
   4791, 0.000207999998, 0.000180000003
   4792, 0.000207999998, 0.000184999997
   4793, 0.000207999998, 0.000190000006
   4794, 0.000207999998, 0.000195000001
   4795, 0.000206500001, 4.99999987e-06
   4796, 0.000206500001, 9.99999975e-06
   4797, 0.000206500001, 1.49999996e-05
   4798, 0.000206500001, 1.99999995e-05
   4799, 0.000206500001, 2.49999994e-05
   4800, 0.000206500001, 2.99999992e-05
   4801, 0.000206500001, 3.50000009e-05
   4802, 0.000206500001, 3.9999999e-05
   4803, 0.000206500001, 4.50000007e-05
   4804, 0.000206500001, 4.99999987e-05
   4805, 0.000206500001, 5.50000004e-05
   4806, 0.000206500001, 5.99999985e-05
   4807, 0.000206500001, 6.50000002e-05
   4808, 0.000206500001, 7.00000019e-05
   4809, 0.000206500001, 7.50000036e-05
   4810, 0.000206500001, 7.9999998e-05
   4811, 0.000206500001, 8.49999997e-05
   4812, 0.000206500001, 9.00000014e-05
   4813, 0.000206500001, 9.50000031e-05
   4814, 0.000206500001, 9.99999975e-05
   4815, 0.000206500001, 0.000104999999
   4816, 0.000206500001, 0.000110000001
   4817, 0.000206500001, 0.000115000003
   4818, 0.000206500001, 0.000119999997
   4819, 0.000206500001, 0.000125000006
   4820, 0.000206500001,      0.00013
   4821, 0.000206500001, 0.000134999995
   4822, 0.000206500001, 0.000140000004
   4823, 0.000206500001, 0.000144999998
   4824, 0.000206500001, 0.000150000007
   4825, 0.000206500001, 0.000155000002
   4826, 0.000206500001, 0.000159999996
   4827, 0.000206500001, 0.000165000005
   4828, 0.000206500001, 0.000169999999
   4829, 0.000206500001, 0.000174999994
   4830, 0.000206500001, 0.000180000003
   4831, 0.000206500001, 0.000184999997
   4832, 0.000206500001, 0.000190000006
   4833, 0.000206500001, 0.000195000001
   4834, 0.000205000004, 4.99999987e-06
   4835, 0.000205000004, 9.99999975e-06
   4836, 0.000205000004, 1.49999996e-05
   4837, 0.000205000004, 1.99999995e-05
   4838, 0.000205000004, 2.49999994e-05
   4839, 0.000205000004, 2.99999992e-05
   4840, 0.000205000004, 3.50000009e-05
   4841, 0.000205000004, 3.9999999e-05
   4842, 0.000205000004, 4.50000007e-05
   4843, 0.000205000004, 4.99999987e-05
   4844, 0.000205000004, 5.50000004e-05
   4845, 0.000205000004, 5.99999985e-05
   4846, 0.000205000004, 6.50000002e-05
   4847, 0.000205000004, 7.00000019e-05
   4848, 0.000205000004, 7.50000036e-05
   4849, 0.000205000004, 7.9999998e-05
   4850, 0.000205000004, 8.49999997e-05
   4851, 0.000205000004, 9.00000014e-05
   4852, 0.000205000004, 9.50000031e-05
   4853, 0.000205000004, 9.99999975e-05
   4854, 0.000205000004, 0.000104999999
   4855, 0.000205000004, 0.000110000001
   4856, 0.000205000004, 0.000115000003
   4857, 0.000205000004, 0.000119999997
   4858, 0.000205000004, 0.000125000006
   4859, 0.000205000004,      0.00013
   4860, 0.000205000004, 0.000134999995
   4861, 0.000205000004, 0.000140000004
   4862, 0.000205000004, 0.000144999998
   4863, 0.000205000004, 0.000150000007
   4864, 0.000205000004, 0.000155000002
   4865, 0.000205000004, 0.000159999996
   4866, 0.000205000004, 0.000165000005
   4867, 0.000205000004, 0.000169999999
   4868, 0.000205000004, 0.000174999994
   4869, 0.000205000004, 0.000180000003
   4870, 0.000205000004, 0.000184999997
   4871, 0.000205000004, 0.000190000006
   4872, 0.000205000004, 0.000195000001
   4873, 0.000203500007, 4.99999987e-06
   4874, 0.000203500007, 9.99999975e-06
   4875, 0.000203500007, 1.49999996e-05
   4876, 0.000203500007, 1.99999995e-05
   4877, 0.000203500007, 2.49999994e-05
   4878, 0.000203500007, 2.99999992e-05
   4879, 0.000203500007, 3.50000009e-05
   4880, 0.000203500007, 3.9999999e-05
   4881, 0.000203500007, 4.50000007e-05
   4882, 0.000203500007, 4.99999987e-05
   4883, 0.000203500007, 5.50000004e-05
   4884, 0.000203500007, 5.99999985e-05
   4885, 0.000203500007, 6.50000002e-05
   4886, 0.000203500007, 7.00000019e-05
   4887, 0.000203500007, 7.50000036e-05
   4888, 0.000203500007, 7.9999998e-05
   4889, 0.000203500007, 8.49999997e-05
   4890, 0.000203500007, 9.00000014e-05
   4891, 0.000203500007, 9.50000031e-05
   4892, 0.000203500007, 9.99999975e-05
   4893, 0.000203500007, 0.000104999999
   4894, 0.000203500007, 0.000110000001
   4895, 0.000203500007, 0.000115000003
   4896, 0.000203500007, 0.000119999997
   4897, 0.000203500007, 0.000125000006
   4898, 0.000203500007,      0.00013
   4899, 0.000203500007, 0.000134999995
   4900, 0.000203500007, 0.000140000004
   4901, 0.000203500007, 0.000144999998
   4902, 0.000203500007, 0.000150000007
   4903, 0.000203500007, 0.000155000002
   4904, 0.000203500007, 0.000159999996
   4905, 0.000203500007, 0.000165000005
   4906, 0.000203500007, 0.000169999999
   4907, 0.000203500007, 0.000174999994
   4908, 0.000203500007, 0.000180000003
   4909, 0.000203500007, 0.000184999997
   4910, 0.000203500007, 0.000190000006
   4911, 0.000203500007, 0.000195000001
   4912, 0.000201999996, 4.99999987e-06
   4913, 0.000201999996, 9.99999975e-06
   4914, 0.000201999996, 1.49999996e-05
   4915, 0.000201999996, 1.99999995e-05
   4916, 0.000201999996, 2.49999994e-05
   4917, 0.000201999996, 2.99999992e-05
   4918, 0.000201999996, 3.50000009e-05
   4919, 0.000201999996, 3.9999999e-05
   4920, 0.000201999996, 4.50000007e-05
   4921, 0.000201999996, 4.99999987e-05
   4922, 0.000201999996, 5.50000004e-05
   4923, 0.000201999996, 5.99999985e-05
   4924, 0.000201999996, 6.50000002e-05
   4925, 0.000201999996, 7.00000019e-05
   4926, 0.000201999996, 7.50000036e-05
   4927, 0.000201999996, 7.9999998e-05
   4928, 0.000201999996, 8.49999997e-05
   4929, 0.000201999996, 9.00000014e-05
   4930, 0.000201999996, 9.50000031e-05
   4931, 0.000201999996, 9.99999975e-05
   4932, 0.000201999996, 0.000104999999
   4933, 0.000201999996, 0.000110000001
   4934, 0.000201999996, 0.000115000003
   4935, 0.000201999996, 0.000119999997
   4936, 0.000201999996, 0.000125000006
   4937, 0.000201999996,      0.00013
   4938, 0.000201999996, 0.000134999995
   4939, 0.000201999996, 0.000140000004
   4940, 0.000201999996, 0.000144999998
   4941, 0.000201999996, 0.000150000007
   4942, 0.000201999996, 0.000155000002
   4943, 0.000201999996, 0.000159999996
   4944, 0.000201999996, 0.000165000005
   4945, 0.000201999996, 0.000169999999
   4946, 0.000201999996, 0.000174999994
   4947, 0.000201999996, 0.000180000003
   4948, 0.000201999996, 0.000184999997
   4949, 0.000201999996, 0.000190000006
   4950, 0.000201999996, 0.000195000001
   4951, 0.000200499999, 4.99999987e-06
   4952, 0.000200499999, 9.99999975e-06
   4953, 0.000200499999, 1.49999996e-05
   4954, 0.000200499999, 1.99999995e-05
   4955, 0.000200499999, 2.49999994e-05
   4956, 0.000200499999, 2.99999992e-05
   4957, 0.000200499999, 3.50000009e-05
   4958, 0.000200499999, 3.9999999e-05
   4959, 0.000200499999, 4.50000007e-05
   4960, 0.000200499999, 4.99999987e-05
   4961, 0.000200499999, 5.50000004e-05
   4962, 0.000200499999, 5.99999985e-05
   4963, 0.000200499999, 6.50000002e-05
   4964, 0.000200499999, 7.00000019e-05
   4965, 0.000200499999, 7.50000036e-05
   4966, 0.000200499999, 7.9999998e-05
   4967, 0.000200499999, 8.49999997e-05
   4968, 0.000200499999, 9.00000014e-05
   4969, 0.000200499999, 9.50000031e-05
   4970, 0.000200499999, 9.99999975e-05
   4971, 0.000200499999, 0.000104999999
   4972, 0.000200499999, 0.000110000001
   4973, 0.000200499999, 0.000115000003
   4974, 0.000200499999, 0.000119999997
   4975, 0.000200499999, 0.000125000006
   4976, 0.000200499999,      0.00013
   4977, 0.000200499999, 0.000134999995
   4978, 0.000200499999, 0.000140000004
   4979, 0.000200499999, 0.000144999998
   4980, 0.000200499999, 0.000150000007
   4981, 0.000200499999, 0.000155000002
   4982, 0.000200499999, 0.000159999996
   4983, 0.000200499999, 0.000165000005
   4984, 0.000200499999, 0.000169999999
   4985, 0.000200499999, 0.000174999994
   4986, 0.000200499999, 0.000180000003
   4987, 0.000200499999, 0.000184999997
   4988, 0.000200499999, 0.000190000006
   4989, 0.000200499999, 0.000195000001
   4990, 0.000199000002, 4.99999987e-06
   4991, 0.000199000002, 9.99999975e-06
   4992, 0.000199000002, 1.49999996e-05
   4993, 0.000199000002, 1.99999995e-05
   4994, 0.000199000002, 2.49999994e-05
   4995, 0.000199000002, 2.99999992e-05
   4996, 0.000199000002, 3.50000009e-05
   4997, 0.000199000002, 3.9999999e-05
   4998, 0.000199000002, 4.50000007e-05
   4999, 0.000199000002, 4.99999987e-05
   5000, 0.000199000002, 5.50000004e-05
   5001, 0.000199000002, 5.99999985e-05
   5002, 0.000199000002, 6.50000002e-05
   5003, 0.000199000002, 7.00000019e-05
   5004, 0.000199000002, 7.50000036e-05
   5005, 0.000199000002, 7.9999998e-05
   5006, 0.000199000002, 8.49999997e-05
   5007, 0.000199000002, 9.00000014e-05
   5008, 0.000199000002, 9.50000031e-05
   5009, 0.000199000002, 9.99999975e-05
   5010, 0.000199000002, 0.000104999999
   5011, 0.000199000002, 0.000110000001
   5012, 0.000199000002, 0.000115000003
   5013, 0.000199000002, 0.000119999997
   5014, 0.000199000002, 0.000125000006
   5015, 0.000199000002,      0.00013
   5016, 0.000199000002, 0.000134999995
   5017, 0.000199000002, 0.000140000004
   5018, 0.000199000002, 0.000144999998
   5019, 0.000199000002, 0.000150000007
   5020, 0.000199000002, 0.000155000002
   5021, 0.000199000002, 0.000159999996
   5022, 0.000199000002, 0.000165000005
   5023, 0.000199000002, 0.000169999999
   5024, 0.000199000002, 0.000174999994
   5025, 0.000199000002, 0.000180000003
   5026, 0.000199000002, 0.000184999997
   5027, 0.000199000002, 0.000190000006
   5028, 0.000199000002, 0.000195000001
   5029, 0.000197500005, 4.99999987e-06
   5030, 0.000197500005, 9.99999975e-06
   5031, 0.000197500005, 1.49999996e-05
   5032, 0.000197500005, 1.99999995e-05
   5033, 0.000197500005, 2.49999994e-05
   5034, 0.000197500005, 2.99999992e-05
   5035, 0.000197500005, 3.50000009e-05
   5036, 0.000197500005, 3.9999999e-05
   5037, 0.000197500005, 4.50000007e-05
   5038, 0.000197500005, 4.99999987e-05
   5039, 0.000197500005, 5.50000004e-05
   5040, 0.000197500005, 5.99999985e-05
   5041, 0.000197500005, 6.50000002e-05
   5042, 0.000197500005, 7.00000019e-05
   5043, 0.000197500005, 7.50000036e-05
   5044, 0.000197500005, 7.9999998e-05
   5045, 0.000197500005, 8.49999997e-05
   5046, 0.000197500005, 9.00000014e-05
   5047, 0.000197500005, 9.50000031e-05
   5048, 0.000197500005, 9.99999975e-05
   5049, 0.000197500005, 0.000104999999
   5050, 0.000197500005, 0.000110000001
   5051, 0.000197500005, 0.000115000003
   5052, 0.000197500005, 0.000119999997
   5053, 0.000197500005, 0.000125000006
   5054, 0.000197500005,      0.00013
   5055, 0.000197500005, 0.000134999995
   5056, 0.000197500005, 0.000140000004
   5057, 0.000197500005, 0.000144999998
   5058, 0.000197500005, 0.000150000007
   5059, 0.000197500005, 0.000155000002
   5060, 0.000197500005, 0.000159999996
   5061, 0.000197500005, 0.000165000005
   5062, 0.000197500005, 0.000169999999
   5063, 0.000197500005, 0.000174999994
   5064, 0.000197500005, 0.000180000003
   5065, 0.000197500005, 0.000184999997
   5066, 0.000197500005, 0.000190000006
   5067, 0.000197500005, 0.000195000001
   5068, 0.000195999994, 4.99999987e-06
   5069, 0.000195999994, 9.99999975e-06
   5070, 0.000195999994, 1.49999996e-05
   5071, 0.000195999994, 1.99999995e-05
   5072, 0.000195999994, 2.49999994e-05
   5073, 0.000195999994, 2.99999992e-05
   5074, 0.000195999994, 3.50000009e-05
   5075, 0.000195999994, 3.9999999e-05
   5076, 0.000195999994, 4.50000007e-05
   5077, 0.000195999994, 4.99999987e-05
   5078, 0.000195999994, 5.50000004e-05
   5079, 0.000195999994, 5.99999985e-05
   5080, 0.000195999994, 6.50000002e-05
   5081, 0.000195999994, 7.00000019e-05
   5082, 0.000195999994, 7.50000036e-05
   5083, 0.000195999994, 7.9999998e-05
   5084, 0.000195999994, 8.49999997e-05
   5085, 0.000195999994, 9.00000014e-05
   5086, 0.000195999994, 9.50000031e-05
   5087, 0.000195999994, 9.99999975e-05
   5088, 0.000195999994, 0.000104999999
   5089, 0.000195999994, 0.000110000001
   5090, 0.000195999994, 0.000115000003
   5091, 0.000195999994, 0.000119999997
   5092, 0.000195999994, 0.000125000006
   5093, 0.000195999994,      0.00013
   5094, 0.000195999994, 0.000134999995
   5095, 0.000195999994, 0.000140000004
   5096, 0.000195999994, 0.000144999998
   5097, 0.000195999994, 0.000150000007
   5098, 0.000195999994, 0.000155000002
   5099, 0.000195999994, 0.000159999996
   5100, 0.000195999994, 0.000165000005
   5101, 0.000195999994, 0.000169999999
   5102, 0.000195999994, 0.000174999994
   5103, 0.000195999994, 0.000180000003
   5104, 0.000195999994, 0.000184999997
   5105, 0.000195999994, 0.000190000006
   5106, 0.000195999994, 0.000195000001
   5107, 0.000194499997, 4.99999987e-06
   5108, 0.000194499997, 9.99999975e-06
   5109, 0.000194499997, 1.49999996e-05
   5110, 0.000194499997, 1.99999995e-05
   5111, 0.000194499997, 2.49999994e-05
   5112, 0.000194499997, 2.99999992e-05
   5113, 0.000194499997, 3.50000009e-05
   5114, 0.000194499997, 3.9999999e-05
   5115, 0.000194499997, 4.50000007e-05
   5116, 0.000194499997, 4.99999987e-05
   5117, 0.000194499997, 5.50000004e-05
   5118, 0.000194499997, 5.99999985e-05
   5119, 0.000194499997, 6.50000002e-05
   5120, 0.000194499997, 7.00000019e-05
   5121, 0.000194499997, 7.50000036e-05
   5122, 0.000194499997, 7.9999998e-05
   5123, 0.000194499997, 8.49999997e-05
   5124, 0.000194499997, 9.00000014e-05
   5125, 0.000194499997, 9.50000031e-05
   5126, 0.000194499997, 9.99999975e-05
   5127, 0.000194499997, 0.000104999999
   5128, 0.000194499997, 0.000110000001
   5129, 0.000194499997, 0.000115000003
   5130, 0.000194499997, 0.000119999997
   5131, 0.000194499997, 0.000125000006
   5132, 0.000194499997,      0.00013
   5133, 0.000194499997, 0.000134999995
   5134, 0.000194499997, 0.000140000004
   5135, 0.000194499997, 0.000144999998
   5136, 0.000194499997, 0.000150000007
   5137, 0.000194499997, 0.000155000002
   5138, 0.000194499997, 0.000159999996
   5139, 0.000194499997, 0.000165000005
   5140, 0.000194499997, 0.000169999999
   5141, 0.000194499997, 0.000174999994
   5142, 0.000194499997, 0.000180000003
   5143, 0.000194499997, 0.000184999997
   5144, 0.000194499997, 0.000190000006
   5145, 0.000194499997, 0.000195000001
   5146,     0.000193, 4.99999987e-06
   5147,     0.000193, 9.99999975e-06
   5148,     0.000193, 1.49999996e-05
   5149,     0.000193, 1.99999995e-05
   5150,     0.000193, 2.49999994e-05
   5151,     0.000193, 2.99999992e-05
   5152,     0.000193, 3.50000009e-05
   5153,     0.000193, 3.9999999e-05
   5154,     0.000193, 4.50000007e-05
   5155,     0.000193, 4.99999987e-05
   5156,     0.000193, 5.50000004e-05
   5157,     0.000193, 5.99999985e-05
   5158,     0.000193, 6.50000002e-05
   5159,     0.000193, 7.00000019e-05
   5160,     0.000193, 7.50000036e-05
   5161,     0.000193, 7.9999998e-05
   5162,     0.000193, 8.49999997e-05
   5163,     0.000193, 9.00000014e-05
   5164,     0.000193, 9.50000031e-05
   5165,     0.000193, 9.99999975e-05
   5166,     0.000193, 0.000104999999
   5167,     0.000193, 0.000110000001
   5168,     0.000193, 0.000115000003
   5169,     0.000193, 0.000119999997
   5170,     0.000193, 0.000125000006
   5171,     0.000193,      0.00013
   5172,     0.000193, 0.000134999995
   5173,     0.000193, 0.000140000004
   5174,     0.000193, 0.000144999998
   5175,     0.000193, 0.000150000007
   5176,     0.000193, 0.000155000002
   5177,     0.000193, 0.000159999996
   5178,     0.000193, 0.000165000005
   5179,     0.000193, 0.000169999999
   5180,     0.000193, 0.000174999994
   5181,     0.000193, 0.000180000003
   5182,     0.000193, 0.000184999997
   5183,     0.000193, 0.000190000006
   5184,     0.000193, 0.000195000001
   5185, 0.000191500003, 4.99999987e-06
   5186, 0.000191500003, 9.99999975e-06
   5187, 0.000191500003, 1.49999996e-05
   5188, 0.000191500003, 1.99999995e-05
   5189, 0.000191500003, 2.49999994e-05
   5190, 0.000191500003, 2.99999992e-05
   5191, 0.000191500003, 3.50000009e-05
   5192, 0.000191500003, 3.9999999e-05
   5193, 0.000191500003, 4.50000007e-05
   5194, 0.000191500003, 4.99999987e-05
   5195, 0.000191500003, 5.50000004e-05
   5196, 0.000191500003, 5.99999985e-05
   5197, 0.000191500003, 6.50000002e-05
   5198, 0.000191500003, 7.00000019e-05
   5199, 0.000191500003, 7.50000036e-05
   5200, 0.000191500003, 7.9999998e-05
   5201, 0.000191500003, 8.49999997e-05
   5202, 0.000191500003, 9.00000014e-05
   5203, 0.000191500003, 9.50000031e-05
   5204, 0.000191500003, 9.99999975e-05
   5205, 0.000191500003, 0.000104999999
   5206, 0.000191500003, 0.000110000001
   5207, 0.000191500003, 0.000115000003
   5208, 0.000191500003, 0.000119999997
   5209, 0.000191500003, 0.000125000006
   5210, 0.000191500003,      0.00013
   5211, 0.000191500003, 0.000134999995
   5212, 0.000191500003, 0.000140000004
   5213, 0.000191500003, 0.000144999998
   5214, 0.000191500003, 0.000150000007
   5215, 0.000191500003, 0.000155000002
   5216, 0.000191500003, 0.000159999996
   5217, 0.000191500003, 0.000165000005
   5218, 0.000191500003, 0.000169999999
   5219, 0.000191500003, 0.000174999994
   5220, 0.000191500003, 0.000180000003
   5221, 0.000191500003, 0.000184999997
   5222, 0.000191500003, 0.000190000006
   5223, 0.000191500003, 0.000195000001
   5224, 0.000190000006, 4.99999987e-06
   5225, 0.000190000006, 9.99999975e-06
   5226, 0.000190000006, 1.49999996e-05
   5227, 0.000190000006, 1.99999995e-05
   5228, 0.000190000006, 2.49999994e-05
   5229, 0.000190000006, 2.99999992e-05
   5230, 0.000190000006, 3.50000009e-05
   5231, 0.000190000006, 3.9999999e-05
   5232, 0.000190000006, 4.50000007e-05
   5233, 0.000190000006, 4.99999987e-05
   5234, 0.000190000006, 5.50000004e-05
   5235, 0.000190000006, 5.99999985e-05
   5236, 0.000190000006, 6.50000002e-05
   5237, 0.000190000006, 7.00000019e-05
   5238, 0.000190000006, 7.50000036e-05
   5239, 0.000190000006, 7.9999998e-05
   5240, 0.000190000006, 8.49999997e-05
   5241, 0.000190000006, 9.00000014e-05
   5242, 0.000190000006, 9.50000031e-05
   5243, 0.000190000006, 9.99999975e-05
   5244, 0.000190000006, 0.000104999999
   5245, 0.000190000006, 0.000110000001
   5246, 0.000190000006, 0.000115000003
   5247, 0.000190000006, 0.000119999997
   5248, 0.000190000006, 0.000125000006
   5249, 0.000190000006,      0.00013
   5250, 0.000190000006, 0.000134999995
   5251, 0.000190000006, 0.000140000004
   5252, 0.000190000006, 0.000144999998
   5253, 0.000190000006, 0.000150000007
   5254, 0.000190000006, 0.000155000002
   5255, 0.000190000006, 0.000159999996
   5256, 0.000190000006, 0.000165000005
   5257, 0.000190000006, 0.000169999999
   5258, 0.000190000006, 0.000174999994
   5259, 0.000190000006, 0.000180000003
   5260, 0.000190000006, 0.000184999997
   5261, 0.000190000006, 0.000190000006
   5262, 0.000190000006, 0.000195000001
   5263, 0.000188499995, 4.99999987e-06
   5264, 0.000188499995, 9.99999975e-06
   5265, 0.000188499995, 1.49999996e-05
   5266, 0.000188499995, 1.99999995e-05
   5267, 0.000188499995, 2.49999994e-05
   5268, 0.000188499995, 2.99999992e-05
   5269, 0.000188499995, 3.50000009e-05
   5270, 0.000188499995, 3.9999999e-05
   5271, 0.000188499995, 4.50000007e-05
   5272, 0.000188499995, 4.99999987e-05
   5273, 0.000188499995, 5.50000004e-05
   5274, 0.000188499995, 5.99999985e-05
   5275, 0.000188499995, 6.50000002e-05
   5276, 0.000188499995, 7.00000019e-05
   5277, 0.000188499995, 7.50000036e-05
   5278, 0.000188499995, 7.9999998e-05
   5279, 0.000188499995, 8.49999997e-05
   5280, 0.000188499995, 9.00000014e-05
   5281, 0.000188499995, 9.50000031e-05
   5282, 0.000188499995, 9.99999975e-05
   5283, 0.000188499995, 0.000104999999
   5284, 0.000188499995, 0.000110000001
   5285, 0.000188499995, 0.000115000003
   5286, 0.000188499995, 0.000119999997
   5287, 0.000188499995, 0.000125000006
   5288, 0.000188499995,      0.00013
   5289, 0.000188499995, 0.000134999995
   5290, 0.000188499995, 0.000140000004
   5291, 0.000188499995, 0.000144999998
   5292, 0.000188499995, 0.000150000007
   5293, 0.000188499995, 0.000155000002
   5294, 0.000188499995, 0.000159999996
   5295, 0.000188499995, 0.000165000005
   5296, 0.000188499995, 0.000169999999
   5297, 0.000188499995, 0.000174999994
   5298, 0.000188499995, 0.000180000003
   5299, 0.000188499995, 0.000184999997
   5300, 0.000188499995, 0.000190000006
   5301, 0.000188499995, 0.000195000001
   5302, 0.000186999998, 4.99999987e-06
   5303, 0.000186999998, 9.99999975e-06
   5304, 0.000186999998, 1.49999996e-05
   5305, 0.000186999998, 1.99999995e-05
   5306, 0.000186999998, 2.49999994e-05
   5307, 0.000186999998, 2.99999992e-05
   5308, 0.000186999998, 3.50000009e-05
   5309, 0.000186999998, 3.9999999e-05
   5310, 0.000186999998, 4.50000007e-05
   5311, 0.000186999998, 4.99999987e-05
   5312, 0.000186999998, 5.50000004e-05
   5313, 0.000186999998, 5.99999985e-05
   5314, 0.000186999998, 6.50000002e-05
   5315, 0.000186999998, 7.00000019e-05
   5316, 0.000186999998, 7.50000036e-05
   5317, 0.000186999998, 7.9999998e-05
   5318, 0.000186999998, 8.49999997e-05
   5319, 0.000186999998, 9.00000014e-05
   5320, 0.000186999998, 9.50000031e-05
   5321, 0.000186999998, 9.99999975e-05
   5322, 0.000186999998, 0.000104999999
   5323, 0.000186999998, 0.000110000001
   5324, 0.000186999998, 0.000115000003
   5325, 0.000186999998, 0.000119999997
   5326, 0.000186999998, 0.000125000006
   5327, 0.000186999998,      0.00013
   5328, 0.000186999998, 0.000134999995
   5329, 0.000186999998, 0.000140000004
   5330, 0.000186999998, 0.000144999998
   5331, 0.000186999998, 0.000150000007
   5332, 0.000186999998, 0.000155000002
   5333, 0.000186999998, 0.000159999996
   5334, 0.000186999998, 0.000165000005
   5335, 0.000186999998, 0.000169999999
   5336, 0.000186999998, 0.000174999994
   5337, 0.000186999998, 0.000180000003
   5338, 0.000186999998, 0.000184999997
   5339, 0.000186999998, 0.000190000006
   5340, 0.000186999998, 0.000195000001
   5341, 0.000185500001, 4.99999987e-06
   5342, 0.000185500001, 9.99999975e-06
   5343, 0.000185500001, 1.49999996e-05
   5344, 0.000185500001, 1.99999995e-05
   5345, 0.000185500001, 2.49999994e-05
   5346, 0.000185500001, 2.99999992e-05
   5347, 0.000185500001, 3.50000009e-05
   5348, 0.000185500001, 3.9999999e-05
   5349, 0.000185500001, 4.50000007e-05
   5350, 0.000185500001, 4.99999987e-05
   5351, 0.000185500001, 5.50000004e-05
   5352, 0.000185500001, 5.99999985e-05
   5353, 0.000185500001, 6.50000002e-05
   5354, 0.000185500001, 7.00000019e-05
   5355, 0.000185500001, 7.50000036e-05
   5356, 0.000185500001, 7.9999998e-05
   5357, 0.000185500001, 8.49999997e-05
   5358, 0.000185500001, 9.00000014e-05
   5359, 0.000185500001, 9.50000031e-05
   5360, 0.000185500001, 9.99999975e-05
   5361, 0.000185500001, 0.000104999999
   5362, 0.000185500001, 0.000110000001
   5363, 0.000185500001, 0.000115000003
   5364, 0.000185500001, 0.000119999997
   5365, 0.000185500001, 0.000125000006
   5366, 0.000185500001,      0.00013
   5367, 0.000185500001, 0.000134999995
   5368, 0.000185500001, 0.000140000004
   5369, 0.000185500001, 0.000144999998
   5370, 0.000185500001, 0.000150000007
   5371, 0.000185500001, 0.000155000002
   5372, 0.000185500001, 0.000159999996
   5373, 0.000185500001, 0.000165000005
   5374, 0.000185500001, 0.000169999999
   5375, 0.000185500001, 0.000174999994
   5376, 0.000185500001, 0.000180000003
   5377, 0.000185500001, 0.000184999997
   5378, 0.000185500001, 0.000190000006
   5379, 0.000185500001, 0.000195000001
   5380, 0.000184000004, 4.99999987e-06
   5381, 0.000184000004, 9.99999975e-06
   5382, 0.000184000004, 1.49999996e-05
   5383, 0.000184000004, 1.99999995e-05
   5384, 0.000184000004, 2.49999994e-05
   5385, 0.000184000004, 2.99999992e-05
   5386, 0.000184000004, 3.50000009e-05
   5387, 0.000184000004, 3.9999999e-05
   5388, 0.000184000004, 4.50000007e-05
   5389, 0.000184000004, 4.99999987e-05
   5390, 0.000184000004, 5.50000004e-05
   5391, 0.000184000004, 5.99999985e-05
   5392, 0.000184000004, 6.50000002e-05
   5393, 0.000184000004, 7.00000019e-05
   5394, 0.000184000004, 7.50000036e-05
   5395, 0.000184000004, 7.9999998e-05
   5396, 0.000184000004, 8.49999997e-05
   5397, 0.000184000004, 9.00000014e-05
   5398, 0.000184000004, 9.50000031e-05
   5399, 0.000184000004, 9.99999975e-05
   5400, 0.000184000004, 0.000104999999
   5401, 0.000184000004, 0.000110000001
   5402, 0.000184000004, 0.000115000003
   5403, 0.000184000004, 0.000119999997
   5404, 0.000184000004, 0.000125000006
   5405, 0.000184000004,      0.00013
   5406, 0.000184000004, 0.000134999995
   5407, 0.000184000004, 0.000140000004
   5408, 0.000184000004, 0.000144999998
   5409, 0.000184000004, 0.000150000007
   5410, 0.000184000004, 0.000155000002
   5411, 0.000184000004, 0.000159999996
   5412, 0.000184000004, 0.000165000005
   5413, 0.000184000004, 0.000169999999
   5414, 0.000184000004, 0.000174999994
   5415, 0.000184000004, 0.000180000003
   5416, 0.000184000004, 0.000184999997
   5417, 0.000184000004, 0.000190000006
   5418, 0.000184000004, 0.000195000001
   5419, 0.000182500007, 4.99999987e-06
   5420, 0.000182500007, 9.99999975e-06
   5421, 0.000182500007, 1.49999996e-05
   5422, 0.000182500007, 1.99999995e-05
   5423, 0.000182500007, 2.49999994e-05
   5424, 0.000182500007, 2.99999992e-05
   5425, 0.000182500007, 3.50000009e-05
   5426, 0.000182500007, 3.9999999e-05
   5427, 0.000182500007, 4.50000007e-05
   5428, 0.000182500007, 4.99999987e-05
   5429, 0.000182500007, 5.50000004e-05
   5430, 0.000182500007, 5.99999985e-05
   5431, 0.000182500007, 6.50000002e-05
   5432, 0.000182500007, 7.00000019e-05
   5433, 0.000182500007, 7.50000036e-05
   5434, 0.000182500007, 7.9999998e-05
   5435, 0.000182500007, 8.49999997e-05
   5436, 0.000182500007, 9.00000014e-05
   5437, 0.000182500007, 9.50000031e-05
   5438, 0.000182500007, 9.99999975e-05
   5439, 0.000182500007, 0.000104999999
   5440, 0.000182500007, 0.000110000001
   5441, 0.000182500007, 0.000115000003
   5442, 0.000182500007, 0.000119999997
   5443, 0.000182500007, 0.000125000006
   5444, 0.000182500007,      0.00013
   5445, 0.000182500007, 0.000134999995
   5446, 0.000182500007, 0.000140000004
   5447, 0.000182500007, 0.000144999998
   5448, 0.000182500007, 0.000150000007
   5449, 0.000182500007, 0.000155000002
   5450, 0.000182500007, 0.000159999996
   5451, 0.000182500007, 0.000165000005
   5452, 0.000182500007, 0.000169999999
   5453, 0.000182500007, 0.000174999994
   5454, 0.000182500007, 0.000180000003
   5455, 0.000182500007, 0.000184999997
   5456, 0.000182500007, 0.000190000006
   5457, 0.000182500007, 0.000195000001
   5458, 0.000180999996, 4.99999987e-06
   5459, 0.000180999996, 9.99999975e-06
   5460, 0.000180999996, 1.49999996e-05
   5461, 0.000180999996, 1.99999995e-05
   5462, 0.000180999996, 2.49999994e-05
   5463, 0.000180999996, 2.99999992e-05
   5464, 0.000180999996, 3.50000009e-05
   5465, 0.000180999996, 3.9999999e-05
   5466, 0.000180999996, 4.50000007e-05
   5467, 0.000180999996, 4.99999987e-05
   5468, 0.000180999996, 5.50000004e-05
   5469, 0.000180999996, 5.99999985e-05
   5470, 0.000180999996, 6.50000002e-05
   5471, 0.000180999996, 7.00000019e-05
   5472, 0.000180999996, 7.50000036e-05
   5473, 0.000180999996, 7.9999998e-05
   5474, 0.000180999996, 8.49999997e-05
   5475, 0.000180999996, 9.00000014e-05
   5476, 0.000180999996, 9.50000031e-05
   5477, 0.000180999996, 9.99999975e-05
   5478, 0.000180999996, 0.000104999999
   5479, 0.000180999996, 0.000110000001
   5480, 0.000180999996, 0.000115000003
   5481, 0.000180999996, 0.000119999997
   5482, 0.000180999996, 0.000125000006
   5483, 0.000180999996,      0.00013
   5484, 0.000180999996, 0.000134999995
   5485, 0.000180999996, 0.000140000004
   5486, 0.000180999996, 0.000144999998
   5487, 0.000180999996, 0.000150000007
   5488, 0.000180999996, 0.000155000002
   5489, 0.000180999996, 0.000159999996
   5490, 0.000180999996, 0.000165000005
   5491, 0.000180999996, 0.000169999999
   5492, 0.000180999996, 0.000174999994
   5493, 0.000180999996, 0.000180000003
   5494, 0.000180999996, 0.000184999997
   5495, 0.000180999996, 0.000190000006
   5496, 0.000180999996, 0.000195000001
   5497, 0.000179499999, 4.99999987e-06
   5498, 0.000179499999, 9.99999975e-06
   5499, 0.000179499999, 1.49999996e-05
   5500, 0.000179499999, 1.99999995e-05
   5501, 0.000179499999, 2.49999994e-05
   5502, 0.000179499999, 2.99999992e-05
   5503, 0.000179499999, 3.50000009e-05
   5504, 0.000179499999, 3.9999999e-05
   5505, 0.000179499999, 4.50000007e-05
   5506, 0.000179499999, 4.99999987e-05
   5507, 0.000179499999, 5.50000004e-05
   5508, 0.000179499999, 5.99999985e-05
   5509, 0.000179499999, 6.50000002e-05
   5510, 0.000179499999, 7.00000019e-05
   5511, 0.000179499999, 7.50000036e-05
   5512, 0.000179499999, 7.9999998e-05
   5513, 0.000179499999, 8.49999997e-05
   5514, 0.000179499999, 9.00000014e-05
   5515, 0.000179499999, 9.50000031e-05
   5516, 0.000179499999, 9.99999975e-05
   5517, 0.000179499999, 0.000104999999
   5518, 0.000179499999, 0.000110000001
   5519, 0.000179499999, 0.000115000003
   5520, 0.000179499999, 0.000119999997
   5521, 0.000179499999, 0.000125000006
   5522, 0.000179499999,      0.00013
   5523, 0.000179499999, 0.000134999995
   5524, 0.000179499999, 0.000140000004
   5525, 0.000179499999, 0.000144999998
   5526, 0.000179499999, 0.000150000007
   5527, 0.000179499999, 0.000155000002
   5528, 0.000179499999, 0.000159999996
   5529, 0.000179499999, 0.000165000005
   5530, 0.000179499999, 0.000169999999
   5531, 0.000179499999, 0.000174999994
   5532, 0.000179499999, 0.000180000003
   5533, 0.000179499999, 0.000184999997
   5534, 0.000179499999, 0.000190000006
   5535, 0.000179499999, 0.000195000001
   5536, 0.000178000002, 4.99999987e-06
   5537, 0.000178000002, 9.99999975e-06
   5538, 0.000178000002, 1.49999996e-05
   5539, 0.000178000002, 1.99999995e-05
   5540, 0.000178000002, 2.49999994e-05
   5541, 0.000178000002, 2.99999992e-05
   5542, 0.000178000002, 3.50000009e-05
   5543, 0.000178000002, 3.9999999e-05
   5544, 0.000178000002, 4.50000007e-05
   5545, 0.000178000002, 4.99999987e-05
   5546, 0.000178000002, 5.50000004e-05
   5547, 0.000178000002, 5.99999985e-05
   5548, 0.000178000002, 6.50000002e-05
   5549, 0.000178000002, 7.00000019e-05
   5550, 0.000178000002, 7.50000036e-05
   5551, 0.000178000002, 7.9999998e-05
   5552, 0.000178000002, 8.49999997e-05
   5553, 0.000178000002, 9.00000014e-05
   5554, 0.000178000002, 9.50000031e-05
   5555, 0.000178000002, 9.99999975e-05
   5556, 0.000178000002, 0.000104999999
   5557, 0.000178000002, 0.000110000001
   5558, 0.000178000002, 0.000115000003
   5559, 0.000178000002, 0.000119999997
   5560, 0.000178000002, 0.000125000006
   5561, 0.000178000002,      0.00013
   5562, 0.000178000002, 0.000134999995
   5563, 0.000178000002, 0.000140000004
   5564, 0.000178000002, 0.000144999998
   5565, 0.000178000002, 0.000150000007
   5566, 0.000178000002, 0.000155000002
   5567, 0.000178000002, 0.000159999996
   5568, 0.000178000002, 0.000165000005
   5569, 0.000178000002, 0.000169999999
   5570, 0.000178000002, 0.000174999994
   5571, 0.000178000002, 0.000180000003
   5572, 0.000178000002, 0.000184999997
   5573, 0.000178000002, 0.000190000006
   5574, 0.000178000002, 0.000195000001
   5575, 0.000176500005, 4.99999987e-06
   5576, 0.000176500005, 9.99999975e-06
   5577, 0.000176500005, 1.49999996e-05
   5578, 0.000176500005, 1.99999995e-05
   5579, 0.000176500005, 2.49999994e-05
   5580, 0.000176500005, 2.99999992e-05
   5581, 0.000176500005, 3.50000009e-05
   5582, 0.000176500005, 3.9999999e-05
   5583, 0.000176500005, 4.50000007e-05
   5584, 0.000176500005, 4.99999987e-05
   5585, 0.000176500005, 5.50000004e-05
   5586, 0.000176500005, 5.99999985e-05
   5587, 0.000176500005, 6.50000002e-05
   5588, 0.000176500005, 7.00000019e-05
   5589, 0.000176500005, 7.50000036e-05
   5590, 0.000176500005, 7.9999998e-05
   5591, 0.000176500005, 8.49999997e-05
   5592, 0.000176500005, 9.00000014e-05
   5593, 0.000176500005, 9.50000031e-05
   5594, 0.000176500005, 9.99999975e-05
   5595, 0.000176500005, 0.000104999999
   5596, 0.000176500005, 0.000110000001
   5597, 0.000176500005, 0.000115000003
   5598, 0.000176500005, 0.000119999997
   5599, 0.000176500005, 0.000125000006
   5600, 0.000176500005,      0.00013
   5601, 0.000176500005, 0.000134999995
   5602, 0.000176500005, 0.000140000004
   5603, 0.000176500005, 0.000144999998
   5604, 0.000176500005, 0.000150000007
   5605, 0.000176500005, 0.000155000002
   5606, 0.000176500005, 0.000159999996
   5607, 0.000176500005, 0.000165000005
   5608, 0.000176500005, 0.000169999999
   5609, 0.000176500005, 0.000174999994
   5610, 0.000176500005, 0.000180000003
   5611, 0.000176500005, 0.000184999997
   5612, 0.000176500005, 0.000190000006
   5613, 0.000176500005, 0.000195000001
   5614, 0.000174999994, 4.99999987e-06
   5615, 0.000174999994, 9.99999975e-06
   5616, 0.000174999994, 1.49999996e-05
   5617, 0.000174999994, 1.99999995e-05
   5618, 0.000174999994, 2.49999994e-05
   5619, 0.000174999994, 2.99999992e-05
   5620, 0.000174999994, 3.50000009e-05
   5621, 0.000174999994, 3.9999999e-05
   5622, 0.000174999994, 4.50000007e-05
   5623, 0.000174999994, 4.99999987e-05
   5624, 0.000174999994, 5.50000004e-05
   5625, 0.000174999994, 5.99999985e-05
   5626, 0.000174999994, 6.50000002e-05
   5627, 0.000174999994, 7.00000019e-05
   5628, 0.000174999994, 7.50000036e-05
   5629, 0.000174999994, 7.9999998e-05
   5630, 0.000174999994, 8.49999997e-05
   5631, 0.000174999994, 9.00000014e-05
   5632, 0.000174999994, 9.50000031e-05
   5633, 0.000174999994, 9.99999975e-05
   5634, 0.000174999994, 0.000104999999
   5635, 0.000174999994, 0.000110000001
   5636, 0.000174999994, 0.000115000003
   5637, 0.000174999994, 0.000119999997
   5638, 0.000174999994, 0.000125000006
   5639, 0.000174999994,      0.00013
   5640, 0.000174999994, 0.000134999995
   5641, 0.000174999994, 0.000140000004
   5642, 0.000174999994, 0.000144999998
   5643, 0.000174999994, 0.000150000007
   5644, 0.000174999994, 0.000155000002
   5645, 0.000174999994, 0.000159999996
   5646, 0.000174999994, 0.000165000005
   5647, 0.000174999994, 0.000169999999
   5648, 0.000174999994, 0.000174999994
   5649, 0.000174999994, 0.000180000003
   5650, 0.000174999994, 0.000184999997
   5651, 0.000174999994, 0.000190000006
   5652, 0.000174999994, 0.000195000001
   5653, 0.000173499997, 4.99999987e-06
   5654, 0.000173499997, 9.99999975e-06
   5655, 0.000173499997, 1.49999996e-05
   5656, 0.000173499997, 1.99999995e-05
   5657, 0.000173499997, 2.49999994e-05
   5658, 0.000173499997, 2.99999992e-05
   5659, 0.000173499997, 3.50000009e-05
   5660, 0.000173499997, 3.9999999e-05
   5661, 0.000173499997, 4.50000007e-05
   5662, 0.000173499997, 4.99999987e-05
   5663, 0.000173499997, 5.50000004e-05
   5664, 0.000173499997, 5.99999985e-05
   5665, 0.000173499997, 6.50000002e-05
   5666, 0.000173499997, 7.00000019e-05
   5667, 0.000173499997, 7.50000036e-05
   5668, 0.000173499997, 7.9999998e-05
   5669, 0.000173499997, 8.49999997e-05
   5670, 0.000173499997, 9.00000014e-05
   5671, 0.000173499997, 9.50000031e-05
   5672, 0.000173499997, 9.99999975e-05
   5673, 0.000173499997, 0.000104999999
   5674, 0.000173499997, 0.000110000001
   5675, 0.000173499997, 0.000115000003
   5676, 0.000173499997, 0.000119999997
   5677, 0.000173499997, 0.000125000006
   5678, 0.000173499997,      0.00013
   5679, 0.000173499997, 0.000134999995
   5680, 0.000173499997, 0.000140000004
   5681, 0.000173499997, 0.000144999998
   5682, 0.000173499997, 0.000150000007
   5683, 0.000173499997, 0.000155000002
   5684, 0.000173499997, 0.000159999996
   5685, 0.000173499997, 0.000165000005
   5686, 0.000173499997, 0.000169999999
   5687, 0.000173499997, 0.000174999994
   5688, 0.000173499997, 0.000180000003
   5689, 0.000173499997, 0.000184999997
   5690, 0.000173499997, 0.000190000006
   5691, 0.000173499997, 0.000195000001
   5692,     0.000172, 4.99999987e-06
   5693,     0.000172, 9.99999975e-06
   5694,     0.000172, 1.49999996e-05
   5695,     0.000172, 1.99999995e-05
   5696,     0.000172, 2.49999994e-05
   5697,     0.000172, 2.99999992e-05
   5698,     0.000172, 3.50000009e-05
   5699,     0.000172, 3.9999999e-05
   5700,     0.000172, 4.50000007e-05
   5701,     0.000172, 4.99999987e-05
   5702,     0.000172, 5.50000004e-05
   5703,     0.000172, 5.99999985e-05
   5704,     0.000172, 6.50000002e-05
   5705,     0.000172, 7.00000019e-05
   5706,     0.000172, 7.50000036e-05
   5707,     0.000172, 7.9999998e-05
   5708,     0.000172, 8.49999997e-05
   5709,     0.000172, 9.00000014e-05
   5710,     0.000172, 9.50000031e-05
   5711,     0.000172, 9.99999975e-05
   5712,     0.000172, 0.000104999999
   5713,     0.000172, 0.000110000001
   5714,     0.000172, 0.000115000003
   5715,     0.000172, 0.000119999997
   5716,     0.000172, 0.000125000006
   5717,     0.000172,      0.00013
   5718,     0.000172, 0.000134999995
   5719,     0.000172, 0.000140000004
   5720,     0.000172, 0.000144999998
   5721,     0.000172, 0.000150000007
   5722,     0.000172, 0.000155000002
   5723,     0.000172, 0.000159999996
   5724,     0.000172, 0.000165000005
   5725,     0.000172, 0.000169999999
   5726,     0.000172, 0.000174999994
   5727,     0.000172, 0.000180000003
   5728,     0.000172, 0.000184999997
   5729,     0.000172, 0.000190000006
   5730,     0.000172, 0.000195000001
   5731, 0.000170500003, 4.99999987e-06
   5732, 0.000170500003, 9.99999975e-06
   5733, 0.000170500003, 1.49999996e-05
   5734, 0.000170500003, 1.99999995e-05
   5735, 0.000170500003, 2.49999994e-05
   5736, 0.000170500003, 2.99999992e-05
   5737, 0.000170500003, 3.50000009e-05
   5738, 0.000170500003, 3.9999999e-05
   5739, 0.000170500003, 4.50000007e-05
   5740, 0.000170500003, 4.99999987e-05
   5741, 0.000170500003, 5.50000004e-05
   5742, 0.000170500003, 5.99999985e-05
   5743, 0.000170500003, 6.50000002e-05
   5744, 0.000170500003, 7.00000019e-05
   5745, 0.000170500003, 7.50000036e-05
   5746, 0.000170500003, 7.9999998e-05
   5747, 0.000170500003, 8.49999997e-05
   5748, 0.000170500003, 9.00000014e-05
   5749, 0.000170500003, 9.50000031e-05
   5750, 0.000170500003, 9.99999975e-05
   5751, 0.000170500003, 0.000104999999
   5752, 0.000170500003, 0.000110000001
   5753, 0.000170500003, 0.000115000003
   5754, 0.000170500003, 0.000119999997
   5755, 0.000170500003, 0.000125000006
   5756, 0.000170500003,      0.00013
   5757, 0.000170500003, 0.000134999995
   5758, 0.000170500003, 0.000140000004
   5759, 0.000170500003, 0.000144999998
   5760, 0.000170500003, 0.000150000007
   5761, 0.000170500003, 0.000155000002
   5762, 0.000170500003, 0.000159999996
   5763, 0.000170500003, 0.000165000005
   5764, 0.000170500003, 0.000169999999
   5765, 0.000170500003, 0.000174999994
   5766, 0.000170500003, 0.000180000003
   5767, 0.000170500003, 0.000184999997
   5768, 0.000170500003, 0.000190000006
   5769, 0.000170500003, 0.000195000001
   5770, 0.000169000006, 4.99999987e-06
   5771, 0.000169000006, 9.99999975e-06
   5772, 0.000169000006, 1.49999996e-05
   5773, 0.000169000006, 1.99999995e-05
   5774, 0.000169000006, 2.49999994e-05
   5775, 0.000169000006, 2.99999992e-05
   5776, 0.000169000006, 3.50000009e-05
   5777, 0.000169000006, 3.9999999e-05
   5778, 0.000169000006, 4.50000007e-05
   5779, 0.000169000006, 4.99999987e-05
   5780, 0.000169000006, 5.50000004e-05
   5781, 0.000169000006, 5.99999985e-05
   5782, 0.000169000006, 6.50000002e-05
   5783, 0.000169000006, 7.00000019e-05
   5784, 0.000169000006, 7.50000036e-05
   5785, 0.000169000006, 7.9999998e-05
   5786, 0.000169000006, 8.49999997e-05
   5787, 0.000169000006, 9.00000014e-05
   5788, 0.000169000006, 9.50000031e-05
   5789, 0.000169000006, 9.99999975e-05
   5790, 0.000169000006, 0.000104999999
   5791, 0.000169000006, 0.000110000001
   5792, 0.000169000006, 0.000115000003
   5793, 0.000169000006, 0.000119999997
   5794, 0.000169000006, 0.000125000006
   5795, 0.000169000006,      0.00013
   5796, 0.000169000006, 0.000134999995
   5797, 0.000169000006, 0.000140000004
   5798, 0.000169000006, 0.000144999998
   5799, 0.000169000006, 0.000150000007
   5800, 0.000169000006, 0.000155000002
   5801, 0.000169000006, 0.000159999996
   5802, 0.000169000006, 0.000165000005
   5803, 0.000169000006, 0.000169999999
   5804, 0.000169000006, 0.000174999994
   5805, 0.000169000006, 0.000180000003
   5806, 0.000169000006, 0.000184999997
   5807, 0.000169000006, 0.000190000006
   5808, 0.000169000006, 0.000195000001
   5809, 0.000167499995, 4.99999987e-06
   5810, 0.000167499995, 9.99999975e-06
   5811, 0.000167499995, 1.49999996e-05
   5812, 0.000167499995, 1.99999995e-05
   5813, 0.000167499995, 2.49999994e-05
   5814, 0.000167499995, 2.99999992e-05
   5815, 0.000167499995, 3.50000009e-05
   5816, 0.000167499995, 3.9999999e-05
   5817, 0.000167499995, 4.50000007e-05
   5818, 0.000167499995, 4.99999987e-05
   5819, 0.000167499995, 5.50000004e-05
   5820, 0.000167499995, 5.99999985e-05
   5821, 0.000167499995, 6.50000002e-05
   5822, 0.000167499995, 7.00000019e-05
   5823, 0.000167499995, 7.50000036e-05
   5824, 0.000167499995, 7.9999998e-05
   5825, 0.000167499995, 8.49999997e-05
   5826, 0.000167499995, 9.00000014e-05
   5827, 0.000167499995, 9.50000031e-05
   5828, 0.000167499995, 9.99999975e-05
   5829, 0.000167499995, 0.000104999999
   5830, 0.000167499995, 0.000110000001
   5831, 0.000167499995, 0.000115000003
   5832, 0.000167499995, 0.000119999997
   5833, 0.000167499995, 0.000125000006
   5834, 0.000167499995,      0.00013
   5835, 0.000167499995, 0.000134999995
   5836, 0.000167499995, 0.000140000004
   5837, 0.000167499995, 0.000144999998
   5838, 0.000167499995, 0.000150000007
   5839, 0.000167499995, 0.000155000002
   5840, 0.000167499995, 0.000159999996
   5841, 0.000167499995, 0.000165000005
   5842, 0.000167499995, 0.000169999999
   5843, 0.000167499995, 0.000174999994
   5844, 0.000167499995, 0.000180000003
   5845, 0.000167499995, 0.000184999997
   5846, 0.000167499995, 0.000190000006
   5847, 0.000167499995, 0.000195000001
   5848, 0.000165999998, 4.99999987e-06
   5849, 0.000165999998, 9.99999975e-06
   5850, 0.000165999998, 1.49999996e-05
   5851, 0.000165999998, 1.99999995e-05
   5852, 0.000165999998, 2.49999994e-05
   5853, 0.000165999998, 2.99999992e-05
   5854, 0.000165999998, 3.50000009e-05
   5855, 0.000165999998, 3.9999999e-05
   5856, 0.000165999998, 4.50000007e-05
   5857, 0.000165999998, 4.99999987e-05
   5858, 0.000165999998, 5.50000004e-05
   5859, 0.000165999998, 5.99999985e-05
   5860, 0.000165999998, 6.50000002e-05
   5861, 0.000165999998, 7.00000019e-05
   5862, 0.000165999998, 7.50000036e-05
   5863, 0.000165999998, 7.9999998e-05
   5864, 0.000165999998, 8.49999997e-05
   5865, 0.000165999998, 9.00000014e-05
   5866, 0.000165999998, 9.50000031e-05
   5867, 0.000165999998, 9.99999975e-05
   5868, 0.000165999998, 0.000104999999
   5869, 0.000165999998, 0.000110000001
   5870, 0.000165999998, 0.000115000003
   5871, 0.000165999998, 0.000119999997
   5872, 0.000165999998, 0.000125000006
   5873, 0.000165999998,      0.00013
   5874, 0.000165999998, 0.000134999995
   5875, 0.000165999998, 0.000140000004
   5876, 0.000165999998, 0.000144999998
   5877, 0.000165999998, 0.000150000007
   5878, 0.000165999998, 0.000155000002
   5879, 0.000165999998, 0.000159999996
   5880, 0.000165999998, 0.000165000005
   5881, 0.000165999998, 0.000169999999
   5882, 0.000165999998, 0.000174999994
   5883, 0.000165999998, 0.000180000003
   5884, 0.000165999998, 0.000184999997
   5885, 0.000165999998, 0.000190000006
   5886, 0.000165999998, 0.000195000001
   5887, 0.000164500001, 4.99999987e-06
   5888, 0.000164500001, 9.99999975e-06
   5889, 0.000164500001, 1.49999996e-05
   5890, 0.000164500001, 1.99999995e-05
   5891, 0.000164500001, 2.49999994e-05
   5892, 0.000164500001, 2.99999992e-05
   5893, 0.000164500001, 3.50000009e-05
   5894, 0.000164500001, 3.9999999e-05
   5895, 0.000164500001, 4.50000007e-05
   5896, 0.000164500001, 4.99999987e-05
   5897, 0.000164500001, 5.50000004e-05
   5898, 0.000164500001, 5.99999985e-05
   5899, 0.000164500001, 6.50000002e-05
   5900, 0.000164500001, 7.00000019e-05
   5901, 0.000164500001, 7.50000036e-05
   5902, 0.000164500001, 7.9999998e-05
   5903, 0.000164500001, 8.49999997e-05
   5904, 0.000164500001, 9.00000014e-05
   5905, 0.000164500001, 9.50000031e-05
   5906, 0.000164500001, 9.99999975e-05
   5907, 0.000164500001, 0.000104999999
   5908, 0.000164500001, 0.000110000001
   5909, 0.000164500001, 0.000115000003
   5910, 0.000164500001, 0.000119999997
   5911, 0.000164500001, 0.000125000006
   5912, 0.000164500001,      0.00013
   5913, 0.000164500001, 0.000134999995
   5914, 0.000164500001, 0.000140000004
   5915, 0.000164500001, 0.000144999998
   5916, 0.000164500001, 0.000150000007
   5917, 0.000164500001, 0.000155000002
   5918, 0.000164500001, 0.000159999996
   5919, 0.000164500001, 0.000165000005
   5920, 0.000164500001, 0.000169999999
   5921, 0.000164500001, 0.000174999994
   5922, 0.000164500001, 0.000180000003
   5923, 0.000164500001, 0.000184999997
   5924, 0.000164500001, 0.000190000006
   5925, 0.000164500001, 0.000195000001
   5926, 0.000163000004, 4.99999987e-06
   5927, 0.000163000004, 9.99999975e-06
   5928, 0.000163000004, 1.49999996e-05
   5929, 0.000163000004, 1.99999995e-05
   5930, 0.000163000004, 2.49999994e-05
   5931, 0.000163000004, 2.99999992e-05
   5932, 0.000163000004, 3.50000009e-05
   5933, 0.000163000004, 3.9999999e-05
   5934, 0.000163000004, 4.50000007e-05
   5935, 0.000163000004, 4.99999987e-05
   5936, 0.000163000004, 5.50000004e-05
   5937, 0.000163000004, 5.99999985e-05
   5938, 0.000163000004, 6.50000002e-05
   5939, 0.000163000004, 7.00000019e-05
   5940, 0.000163000004, 7.50000036e-05
   5941, 0.000163000004, 7.9999998e-05
   5942, 0.000163000004, 8.49999997e-05
   5943, 0.000163000004, 9.00000014e-05
   5944, 0.000163000004, 9.50000031e-05
   5945, 0.000163000004, 9.99999975e-05
   5946, 0.000163000004, 0.000104999999
   5947, 0.000163000004, 0.000110000001
   5948, 0.000163000004, 0.000115000003
   5949, 0.000163000004, 0.000119999997
   5950, 0.000163000004, 0.000125000006
   5951, 0.000163000004,      0.00013
   5952, 0.000163000004, 0.000134999995
   5953, 0.000163000004, 0.000140000004
   5954, 0.000163000004, 0.000144999998
   5955, 0.000163000004, 0.000150000007
   5956, 0.000163000004, 0.000155000002
   5957, 0.000163000004, 0.000159999996
   5958, 0.000163000004, 0.000165000005
   5959, 0.000163000004, 0.000169999999
   5960, 0.000163000004, 0.000174999994
   5961, 0.000163000004, 0.000180000003
   5962, 0.000163000004, 0.000184999997
   5963, 0.000163000004, 0.000190000006
   5964, 0.000163000004, 0.000195000001
   5965, 0.000161499993, 4.99999987e-06
   5966, 0.000161499993, 9.99999975e-06
   5967, 0.000161499993, 1.49999996e-05
   5968, 0.000161499993, 1.99999995e-05
   5969, 0.000161499993, 2.49999994e-05
   5970, 0.000161499993, 2.99999992e-05
   5971, 0.000161499993, 3.50000009e-05
   5972, 0.000161499993, 3.9999999e-05
   5973, 0.000161499993, 4.50000007e-05
   5974, 0.000161499993, 4.99999987e-05
   5975, 0.000161499993, 5.50000004e-05
   5976, 0.000161499993, 5.99999985e-05
   5977, 0.000161499993, 6.50000002e-05
   5978, 0.000161499993, 7.00000019e-05
   5979, 0.000161499993, 7.50000036e-05
   5980, 0.000161499993, 7.9999998e-05
   5981, 0.000161499993, 8.49999997e-05
   5982, 0.000161499993, 9.00000014e-05
   5983, 0.000161499993, 9.50000031e-05
   5984, 0.000161499993, 9.99999975e-05
   5985, 0.000161499993, 0.000104999999
   5986, 0.000161499993, 0.000110000001
   5987, 0.000161499993, 0.000115000003
   5988, 0.000161499993, 0.000119999997
   5989, 0.000161499993, 0.000125000006
   5990, 0.000161499993,      0.00013
   5991, 0.000161499993, 0.000134999995
   5992, 0.000161499993, 0.000140000004
   5993, 0.000161499993, 0.000144999998
   5994, 0.000161499993, 0.000150000007
   5995, 0.000161499993, 0.000155000002
   5996, 0.000161499993, 0.000159999996
   5997, 0.000161499993, 0.000165000005
   5998, 0.000161499993, 0.000169999999
   5999, 0.000161499993, 0.000174999994
   6000, 0.000161499993, 0.000180000003
   6001, 0.000161499993, 0.000184999997
   6002, 0.000161499993, 0.000190000006
   6003, 0.000161499993, 0.000195000001
   6004, 0.000159999996, 4.99999987e-06
   6005, 0.000159999996, 9.99999975e-06
   6006, 0.000159999996, 1.49999996e-05
   6007, 0.000159999996, 1.99999995e-05
   6008, 0.000159999996, 2.49999994e-05
   6009, 0.000159999996, 2.99999992e-05
   6010, 0.000159999996, 3.50000009e-05
   6011, 0.000159999996, 3.9999999e-05
   6012, 0.000159999996, 4.50000007e-05
   6013, 0.000159999996, 4.99999987e-05
   6014, 0.000159999996, 5.50000004e-05
   6015, 0.000159999996, 5.99999985e-05
   6016, 0.000159999996, 6.50000002e-05
   6017, 0.000159999996, 7.00000019e-05
   6018, 0.000159999996, 7.50000036e-05
   6019, 0.000159999996, 7.9999998e-05
   6020, 0.000159999996, 8.49999997e-05
   6021, 0.000159999996, 9.00000014e-05
   6022, 0.000159999996, 9.50000031e-05
   6023, 0.000159999996, 9.99999975e-05
   6024, 0.000159999996, 0.000104999999
   6025, 0.000159999996, 0.000110000001
   6026, 0.000159999996, 0.000115000003
   6027, 0.000159999996, 0.000119999997
   6028, 0.000159999996, 0.000125000006
   6029, 0.000159999996,      0.00013
   6030, 0.000159999996, 0.000134999995
   6031, 0.000159999996, 0.000140000004
   6032, 0.000159999996, 0.000144999998
   6033, 0.000159999996, 0.000150000007
   6034, 0.000159999996, 0.000155000002
   6035, 0.000159999996, 0.000159999996
   6036, 0.000159999996, 0.000165000005
   6037, 0.000159999996, 0.000169999999
   6038, 0.000159999996, 0.000174999994
   6039, 0.000159999996, 0.000180000003
   6040, 0.000159999996, 0.000184999997
   6041, 0.000159999996, 0.000190000006
   6042, 0.000159999996, 0.000195000001
   6043, 0.000158499999, 4.99999987e-06
   6044, 0.000158499999, 9.99999975e-06
   6045, 0.000158499999, 1.49999996e-05
   6046, 0.000158499999, 1.99999995e-05
   6047, 0.000158499999, 2.49999994e-05
   6048, 0.000158499999, 2.99999992e-05
   6049, 0.000158499999, 3.50000009e-05
   6050, 0.000158499999, 3.9999999e-05
   6051, 0.000158499999, 4.50000007e-05
   6052, 0.000158499999, 4.99999987e-05
   6053, 0.000158499999, 5.50000004e-05
   6054, 0.000158499999, 5.99999985e-05
   6055, 0.000158499999, 6.50000002e-05
   6056, 0.000158499999, 7.00000019e-05
   6057, 0.000158499999, 7.50000036e-05
   6058, 0.000158499999, 7.9999998e-05
   6059, 0.000158499999, 8.49999997e-05
   6060, 0.000158499999, 9.00000014e-05
   6061, 0.000158499999, 9.50000031e-05
   6062, 0.000158499999, 9.99999975e-05
   6063, 0.000158499999, 0.000104999999
   6064, 0.000158499999, 0.000110000001
   6065, 0.000158499999, 0.000115000003
   6066, 0.000158499999, 0.000119999997
   6067, 0.000158499999, 0.000125000006
   6068, 0.000158499999,      0.00013
   6069, 0.000158499999, 0.000134999995
   6070, 0.000158499999, 0.000140000004
   6071, 0.000158499999, 0.000144999998
   6072, 0.000158499999, 0.000150000007
   6073, 0.000158499999, 0.000155000002
   6074, 0.000158499999, 0.000159999996
   6075, 0.000158499999, 0.000165000005
   6076, 0.000158499999, 0.000169999999
   6077, 0.000158499999, 0.000174999994
   6078, 0.000158499999, 0.000180000003
   6079, 0.000158499999, 0.000184999997
   6080, 0.000158499999, 0.000190000006
   6081, 0.000158499999, 0.000195000001
   6082, 0.000157000002, 4.99999987e-06
   6083, 0.000157000002, 9.99999975e-06
   6084, 0.000157000002, 1.49999996e-05
   6085, 0.000157000002, 1.99999995e-05
   6086, 0.000157000002, 2.49999994e-05
   6087, 0.000157000002, 2.99999992e-05
   6088, 0.000157000002, 3.50000009e-05
   6089, 0.000157000002, 3.9999999e-05
   6090, 0.000157000002, 4.50000007e-05
   6091, 0.000157000002, 4.99999987e-05
   6092, 0.000157000002, 5.50000004e-05
   6093, 0.000157000002, 5.99999985e-05
   6094, 0.000157000002, 6.50000002e-05
   6095, 0.000157000002, 7.00000019e-05
   6096, 0.000157000002, 7.50000036e-05
   6097, 0.000157000002, 7.9999998e-05
   6098, 0.000157000002, 8.49999997e-05
   6099, 0.000157000002, 9.00000014e-05
   6100, 0.000157000002, 9.50000031e-05
   6101, 0.000157000002, 9.99999975e-05
   6102, 0.000157000002, 0.000104999999
   6103, 0.000157000002, 0.000110000001
   6104, 0.000157000002, 0.000115000003
   6105, 0.000157000002, 0.000119999997
   6106, 0.000157000002, 0.000125000006
   6107, 0.000157000002,      0.00013
   6108, 0.000157000002, 0.000134999995
   6109, 0.000157000002, 0.000140000004
   6110, 0.000157000002, 0.000144999998
   6111, 0.000157000002, 0.000150000007
   6112, 0.000157000002, 0.000155000002
   6113, 0.000157000002, 0.000159999996
   6114, 0.000157000002, 0.000165000005
   6115, 0.000157000002, 0.000169999999
   6116, 0.000157000002, 0.000174999994
   6117, 0.000157000002, 0.000180000003
   6118, 0.000157000002, 0.000184999997
   6119, 0.000157000002, 0.000190000006
   6120, 0.000157000002, 0.000195000001
   6121, 0.000155500005, 4.99999987e-06
   6122, 0.000155500005, 9.99999975e-06
   6123, 0.000155500005, 1.49999996e-05
   6124, 0.000155500005, 1.99999995e-05
   6125, 0.000155500005, 2.49999994e-05
   6126, 0.000155500005, 2.99999992e-05
   6127, 0.000155500005, 3.50000009e-05
   6128, 0.000155500005, 3.9999999e-05
   6129, 0.000155500005, 4.50000007e-05
   6130, 0.000155500005, 4.99999987e-05
   6131, 0.000155500005, 5.50000004e-05
   6132, 0.000155500005, 5.99999985e-05
   6133, 0.000155500005, 6.50000002e-05
   6134, 0.000155500005, 7.00000019e-05
   6135, 0.000155500005, 7.50000036e-05
   6136, 0.000155500005, 7.9999998e-05
   6137, 0.000155500005, 8.49999997e-05
   6138, 0.000155500005, 9.00000014e-05
   6139, 0.000155500005, 9.50000031e-05
   6140, 0.000155500005, 9.99999975e-05
   6141, 0.000155500005, 0.000104999999
   6142, 0.000155500005, 0.000110000001
   6143, 0.000155500005, 0.000115000003
   6144, 0.000155500005, 0.000119999997
   6145, 0.000155500005, 0.000125000006
   6146, 0.000155500005,      0.00013
   6147, 0.000155500005, 0.000134999995
   6148, 0.000155500005, 0.000140000004
   6149, 0.000155500005, 0.000144999998
   6150, 0.000155500005, 0.000150000007
   6151, 0.000155500005, 0.000155000002
   6152, 0.000155500005, 0.000159999996
   6153, 0.000155500005, 0.000165000005
   6154, 0.000155500005, 0.000169999999
   6155, 0.000155500005, 0.000174999994
   6156, 0.000155500005, 0.000180000003
   6157, 0.000155500005, 0.000184999997
   6158, 0.000155500005, 0.000190000006
   6159, 0.000155500005, 0.000195000001
   6160, 0.000153999994, 4.99999987e-06
   6161, 0.000153999994, 9.99999975e-06
   6162, 0.000153999994, 1.49999996e-05
   6163, 0.000153999994, 1.99999995e-05
   6164, 0.000153999994, 2.49999994e-05
   6165, 0.000153999994, 2.99999992e-05
   6166, 0.000153999994, 3.50000009e-05
   6167, 0.000153999994, 3.9999999e-05
   6168, 0.000153999994, 4.50000007e-05
   6169, 0.000153999994, 4.99999987e-05
   6170, 0.000153999994, 5.50000004e-05
   6171, 0.000153999994, 5.99999985e-05
   6172, 0.000153999994, 6.50000002e-05
   6173, 0.000153999994, 7.00000019e-05
   6174, 0.000153999994, 7.50000036e-05
   6175, 0.000153999994, 7.9999998e-05
   6176, 0.000153999994, 8.49999997e-05
   6177, 0.000153999994, 9.00000014e-05
   6178, 0.000153999994, 9.50000031e-05
   6179, 0.000153999994, 9.99999975e-05
   6180, 0.000153999994, 0.000104999999
   6181, 0.000153999994, 0.000110000001
   6182, 0.000153999994, 0.000115000003
   6183, 0.000153999994, 0.000119999997
   6184, 0.000153999994, 0.000125000006
   6185, 0.000153999994,      0.00013
   6186, 0.000153999994, 0.000134999995
   6187, 0.000153999994, 0.000140000004
   6188, 0.000153999994, 0.000144999998
   6189, 0.000153999994, 0.000150000007
   6190, 0.000153999994, 0.000155000002
   6191, 0.000153999994, 0.000159999996
   6192, 0.000153999994, 0.000165000005
   6193, 0.000153999994, 0.000169999999
   6194, 0.000153999994, 0.000174999994
   6195, 0.000153999994, 0.000180000003
   6196, 0.000153999994, 0.000184999997
   6197, 0.000153999994, 0.000190000006
   6198, 0.000153999994, 0.000195000001
   6199, 0.000152499997, 4.99999987e-06
   6200, 0.000152499997, 9.99999975e-06
   6201, 0.000152499997, 1.49999996e-05
   6202, 0.000152499997, 1.99999995e-05
   6203, 0.000152499997, 2.49999994e-05
   6204, 0.000152499997, 2.99999992e-05
   6205, 0.000152499997, 3.50000009e-05
   6206, 0.000152499997, 3.9999999e-05
   6207, 0.000152499997, 4.50000007e-05
   6208, 0.000152499997, 4.99999987e-05
   6209, 0.000152499997, 5.50000004e-05
   6210, 0.000152499997, 5.99999985e-05
   6211, 0.000152499997, 6.50000002e-05
   6212, 0.000152499997, 7.00000019e-05
   6213, 0.000152499997, 7.50000036e-05
   6214, 0.000152499997, 7.9999998e-05
   6215, 0.000152499997, 8.49999997e-05
   6216, 0.000152499997, 9.00000014e-05
   6217, 0.000152499997, 9.50000031e-05
   6218, 0.000152499997, 9.99999975e-05
   6219, 0.000152499997, 0.000104999999
   6220, 0.000152499997, 0.000110000001
   6221, 0.000152499997, 0.000115000003
   6222, 0.000152499997, 0.000119999997
   6223, 0.000152499997, 0.000125000006
   6224, 0.000152499997,      0.00013
   6225, 0.000152499997, 0.000134999995
   6226, 0.000152499997, 0.000140000004
   6227, 0.000152499997, 0.000144999998
   6228, 0.000152499997, 0.000150000007
   6229, 0.000152499997, 0.000155000002
   6230, 0.000152499997, 0.000159999996
   6231, 0.000152499997, 0.000165000005
   6232, 0.000152499997, 0.000169999999
   6233, 0.000152499997, 0.000174999994
   6234, 0.000152499997, 0.000180000003
   6235, 0.000152499997, 0.000184999997
   6236, 0.000152499997, 0.000190000006
   6237, 0.000152499997, 0.000195000001
   6238,     0.000151, 4.99999987e-06
   6239,     0.000151, 9.99999975e-06
   6240,     0.000151, 1.49999996e-05
   6241,     0.000151, 1.99999995e-05
   6242,     0.000151, 2.49999994e-05
   6243,     0.000151, 2.99999992e-05
   6244,     0.000151, 3.50000009e-05
   6245,     0.000151, 3.9999999e-05
   6246,     0.000151, 4.50000007e-05
   6247,     0.000151, 4.99999987e-05
   6248,     0.000151, 5.50000004e-05
   6249,     0.000151, 5.99999985e-05
   6250,     0.000151, 6.50000002e-05
   6251,     0.000151, 7.00000019e-05
   6252,     0.000151, 7.50000036e-05
   6253,     0.000151, 7.9999998e-05
   6254,     0.000151, 8.49999997e-05
   6255,     0.000151, 9.00000014e-05
   6256,     0.000151, 9.50000031e-05
   6257,     0.000151, 9.99999975e-05
   6258,     0.000151, 0.000104999999
   6259,     0.000151, 0.000110000001
   6260,     0.000151, 0.000115000003
   6261,     0.000151, 0.000119999997
   6262,     0.000151, 0.000125000006
   6263,     0.000151,      0.00013
   6264,     0.000151, 0.000134999995
   6265,     0.000151, 0.000140000004
   6266,     0.000151, 0.000144999998
   6267,     0.000151, 0.000150000007
   6268,     0.000151, 0.000155000002
   6269,     0.000151, 0.000159999996
   6270,     0.000151, 0.000165000005
   6271,     0.000151, 0.000169999999
   6272,     0.000151, 0.000174999994
   6273,     0.000151, 0.000180000003
   6274,     0.000151, 0.000184999997
   6275,     0.000151, 0.000190000006
   6276,     0.000151, 0.000195000001
   6277, 0.000149500003, 4.99999987e-06
   6278, 0.000149500003, 9.99999975e-06
   6279, 0.000149500003, 1.49999996e-05
   6280, 0.000149500003, 1.99999995e-05
   6281, 0.000149500003, 2.49999994e-05
   6282, 0.000149500003, 2.99999992e-05
   6283, 0.000149500003, 3.50000009e-05
   6284, 0.000149500003, 3.9999999e-05
   6285, 0.000149500003, 4.50000007e-05
   6286, 0.000149500003, 4.99999987e-05
   6287, 0.000149500003, 5.50000004e-05
   6288, 0.000149500003, 5.99999985e-05
   6289, 0.000149500003, 6.50000002e-05
   6290, 0.000149500003, 7.00000019e-05
   6291, 0.000149500003, 7.50000036e-05
   6292, 0.000149500003, 7.9999998e-05
   6293, 0.000149500003, 8.49999997e-05
   6294, 0.000149500003, 9.00000014e-05
   6295, 0.000149500003, 9.50000031e-05
   6296, 0.000149500003, 9.99999975e-05
   6297, 0.000149500003, 0.000104999999
   6298, 0.000149500003, 0.000110000001
   6299, 0.000149500003, 0.000115000003
   6300, 0.000149500003, 0.000119999997
   6301, 0.000149500003, 0.000125000006
   6302, 0.000149500003,      0.00013
   6303, 0.000149500003, 0.000134999995
   6304, 0.000149500003, 0.000140000004
   6305, 0.000149500003, 0.000144999998
   6306, 0.000149500003, 0.000150000007
   6307, 0.000149500003, 0.000155000002
   6308, 0.000149500003, 0.000159999996
   6309, 0.000149500003, 0.000165000005
   6310, 0.000149500003, 0.000169999999
   6311, 0.000149500003, 0.000174999994
   6312, 0.000149500003, 0.000180000003
   6313, 0.000149500003, 0.000184999997
   6314, 0.000149500003, 0.000190000006
   6315, 0.000149500003, 0.000195000001
   6316, 0.000148000006, 4.99999987e-06
   6317, 0.000148000006, 9.99999975e-06
   6318, 0.000148000006, 1.49999996e-05
   6319, 0.000148000006, 1.99999995e-05
   6320, 0.000148000006, 2.49999994e-05
   6321, 0.000148000006, 2.99999992e-05
   6322, 0.000148000006, 3.50000009e-05
   6323, 0.000148000006, 3.9999999e-05
   6324, 0.000148000006, 4.50000007e-05
   6325, 0.000148000006, 4.99999987e-05
   6326, 0.000148000006, 5.50000004e-05
   6327, 0.000148000006, 5.99999985e-05
   6328, 0.000148000006, 6.50000002e-05
   6329, 0.000148000006, 7.00000019e-05
   6330, 0.000148000006, 7.50000036e-05
   6331, 0.000148000006, 7.9999998e-05
   6332, 0.000148000006, 8.49999997e-05
   6333, 0.000148000006, 9.00000014e-05
   6334, 0.000148000006, 9.50000031e-05
   6335, 0.000148000006, 9.99999975e-05
   6336, 0.000148000006, 0.000104999999
   6337, 0.000148000006, 0.000110000001
   6338, 0.000148000006, 0.000115000003
   6339, 0.000148000006, 0.000119999997
   6340, 0.000148000006, 0.000125000006
   6341, 0.000148000006,      0.00013
   6342, 0.000148000006, 0.000134999995
   6343, 0.000148000006, 0.000140000004
   6344, 0.000148000006, 0.000144999998
   6345, 0.000148000006, 0.000150000007
   6346, 0.000148000006, 0.000155000002
   6347, 0.000148000006, 0.000159999996
   6348, 0.000148000006, 0.000165000005
   6349, 0.000148000006, 0.000169999999
   6350, 0.000148000006, 0.000174999994
   6351, 0.000148000006, 0.000180000003
   6352, 0.000148000006, 0.000184999997
   6353, 0.000148000006, 0.000190000006
   6354, 0.000148000006, 0.000195000001
   6355, 0.000146499995, 4.99999987e-06
   6356, 0.000146499995, 9.99999975e-06
   6357, 0.000146499995, 1.49999996e-05
   6358, 0.000146499995, 1.99999995e-05
   6359, 0.000146499995, 2.49999994e-05
   6360, 0.000146499995, 2.99999992e-05
   6361, 0.000146499995, 3.50000009e-05
   6362, 0.000146499995, 3.9999999e-05
   6363, 0.000146499995, 4.50000007e-05
   6364, 0.000146499995, 4.99999987e-05
   6365, 0.000146499995, 5.50000004e-05
   6366, 0.000146499995, 5.99999985e-05
   6367, 0.000146499995, 6.50000002e-05
   6368, 0.000146499995, 7.00000019e-05
   6369, 0.000146499995, 7.50000036e-05
   6370, 0.000146499995, 7.9999998e-05
   6371, 0.000146499995, 8.49999997e-05
   6372, 0.000146499995, 9.00000014e-05
   6373, 0.000146499995, 9.50000031e-05
   6374, 0.000146499995, 9.99999975e-05
   6375, 0.000146499995, 0.000104999999
   6376, 0.000146499995, 0.000110000001
   6377, 0.000146499995, 0.000115000003
   6378, 0.000146499995, 0.000119999997
   6379, 0.000146499995, 0.000125000006
   6380, 0.000146499995,      0.00013
   6381, 0.000146499995, 0.000134999995
   6382, 0.000146499995, 0.000140000004
   6383, 0.000146499995, 0.000144999998
   6384, 0.000146499995, 0.000150000007
   6385, 0.000146499995, 0.000155000002
   6386, 0.000146499995, 0.000159999996
   6387, 0.000146499995, 0.000165000005
   6388, 0.000146499995, 0.000169999999
   6389, 0.000146499995, 0.000174999994
   6390, 0.000146499995, 0.000180000003
   6391, 0.000146499995, 0.000184999997
   6392, 0.000146499995, 0.000190000006
   6393, 0.000146499995, 0.000195000001
   6394, 0.000144999998, 4.99999987e-06
   6395, 0.000144999998, 9.99999975e-06
   6396, 0.000144999998, 1.49999996e-05
   6397, 0.000144999998, 1.99999995e-05
   6398, 0.000144999998, 2.49999994e-05
   6399, 0.000144999998, 2.99999992e-05
   6400, 0.000144999998, 3.50000009e-05
   6401, 0.000144999998, 3.9999999e-05
   6402, 0.000144999998, 4.50000007e-05
   6403, 0.000144999998, 4.99999987e-05
   6404, 0.000144999998, 5.50000004e-05
   6405, 0.000144999998, 5.99999985e-05
   6406, 0.000144999998, 6.50000002e-05
   6407, 0.000144999998, 7.00000019e-05
   6408, 0.000144999998, 7.50000036e-05
   6409, 0.000144999998, 7.9999998e-05
   6410, 0.000144999998, 8.49999997e-05
   6411, 0.000144999998, 9.00000014e-05
   6412, 0.000144999998, 9.50000031e-05
   6413, 0.000144999998, 9.99999975e-05
   6414, 0.000144999998, 0.000104999999
   6415, 0.000144999998, 0.000110000001
   6416, 0.000144999998, 0.000115000003
   6417, 0.000144999998, 0.000119999997
   6418, 0.000144999998, 0.000125000006
   6419, 0.000144999998,      0.00013
   6420, 0.000144999998, 0.000134999995
   6421, 0.000144999998, 0.000140000004
   6422, 0.000144999998, 0.000144999998
   6423, 0.000144999998, 0.000150000007
   6424, 0.000144999998, 0.000155000002
   6425, 0.000144999998, 0.000159999996
   6426, 0.000144999998, 0.000165000005
   6427, 0.000144999998, 0.000169999999
   6428, 0.000144999998, 0.000174999994
   6429, 0.000144999998, 0.000180000003
   6430, 0.000144999998, 0.000184999997
   6431, 0.000144999998, 0.000190000006
   6432, 0.000144999998, 0.000195000001
   6433, 0.000143500001, 4.99999987e-06
   6434, 0.000143500001, 9.99999975e-06
   6435, 0.000143500001, 1.49999996e-05
   6436, 0.000143500001, 1.99999995e-05
   6437, 0.000143500001, 2.49999994e-05
   6438, 0.000143500001, 2.99999992e-05
   6439, 0.000143500001, 3.50000009e-05
   6440, 0.000143500001, 3.9999999e-05
   6441, 0.000143500001, 4.50000007e-05
   6442, 0.000143500001, 4.99999987e-05
   6443, 0.000143500001, 5.50000004e-05
   6444, 0.000143500001, 5.99999985e-05
   6445, 0.000143500001, 6.50000002e-05
   6446, 0.000143500001, 7.00000019e-05
   6447, 0.000143500001, 7.50000036e-05
   6448, 0.000143500001, 7.9999998e-05
   6449, 0.000143500001, 8.49999997e-05
   6450, 0.000143500001, 9.00000014e-05
   6451, 0.000143500001, 9.50000031e-05
   6452, 0.000143500001, 9.99999975e-05
   6453, 0.000143500001, 0.000104999999
   6454, 0.000143500001, 0.000110000001
   6455, 0.000143500001, 0.000115000003
   6456, 0.000143500001, 0.000119999997
   6457, 0.000143500001, 0.000125000006
   6458, 0.000143500001,      0.00013
   6459, 0.000143500001, 0.000134999995
   6460, 0.000143500001, 0.000140000004
   6461, 0.000143500001, 0.000144999998
   6462, 0.000143500001, 0.000150000007
   6463, 0.000143500001, 0.000155000002
   6464, 0.000143500001, 0.000159999996
   6465, 0.000143500001, 0.000165000005
   6466, 0.000143500001, 0.000169999999
   6467, 0.000143500001, 0.000174999994
   6468, 0.000143500001, 0.000180000003
   6469, 0.000143500001, 0.000184999997
   6470, 0.000143500001, 0.000190000006
   6471, 0.000143500001, 0.000195000001
   6472, 0.000142000004, 4.99999987e-06
   6473, 0.000142000004, 9.99999975e-06
   6474, 0.000142000004, 1.49999996e-05
   6475, 0.000142000004, 1.99999995e-05
   6476, 0.000142000004, 2.49999994e-05
   6477, 0.000142000004, 2.99999992e-05
   6478, 0.000142000004, 3.50000009e-05
   6479, 0.000142000004, 3.9999999e-05
   6480, 0.000142000004, 4.50000007e-05
   6481, 0.000142000004, 4.99999987e-05
   6482, 0.000142000004, 5.50000004e-05
   6483, 0.000142000004, 5.99999985e-05
   6484, 0.000142000004, 6.50000002e-05
   6485, 0.000142000004, 7.00000019e-05
   6486, 0.000142000004, 7.50000036e-05
   6487, 0.000142000004, 7.9999998e-05
   6488, 0.000142000004, 8.49999997e-05
   6489, 0.000142000004, 9.00000014e-05
   6490, 0.000142000004, 9.50000031e-05
   6491, 0.000142000004, 9.99999975e-05
   6492, 0.000142000004, 0.000104999999
   6493, 0.000142000004, 0.000110000001
   6494, 0.000142000004, 0.000115000003
   6495, 0.000142000004, 0.000119999997
   6496, 0.000142000004, 0.000125000006
   6497, 0.000142000004,      0.00013
   6498, 0.000142000004, 0.000134999995
   6499, 0.000142000004, 0.000140000004
   6500, 0.000142000004, 0.000144999998
   6501, 0.000142000004, 0.000150000007
   6502, 0.000142000004, 0.000155000002
   6503, 0.000142000004, 0.000159999996
   6504, 0.000142000004, 0.000165000005
   6505, 0.000142000004, 0.000169999999
   6506, 0.000142000004, 0.000174999994
   6507, 0.000142000004, 0.000180000003
   6508, 0.000142000004, 0.000184999997
   6509, 0.000142000004, 0.000190000006
   6510, 0.000142000004, 0.000195000001
   6511, 0.000140499993, 4.99999987e-06
   6512, 0.000140499993, 9.99999975e-06
   6513, 0.000140499993, 1.49999996e-05
   6514, 0.000140499993, 1.99999995e-05
   6515, 0.000140499993, 2.49999994e-05
   6516, 0.000140499993, 2.99999992e-05
   6517, 0.000140499993, 3.50000009e-05
   6518, 0.000140499993, 3.9999999e-05
   6519, 0.000140499993, 4.50000007e-05
   6520, 0.000140499993, 4.99999987e-05
   6521, 0.000140499993, 5.50000004e-05
   6522, 0.000140499993, 5.99999985e-05
   6523, 0.000140499993, 6.50000002e-05
   6524, 0.000140499993, 7.00000019e-05
   6525, 0.000140499993, 7.50000036e-05
   6526, 0.000140499993, 7.9999998e-05
   6527, 0.000140499993, 8.49999997e-05
   6528, 0.000140499993, 9.00000014e-05
   6529, 0.000140499993, 9.50000031e-05
   6530, 0.000140499993, 9.99999975e-05
   6531, 0.000140499993, 0.000104999999
   6532, 0.000140499993, 0.000110000001
   6533, 0.000140499993, 0.000115000003
   6534, 0.000140499993, 0.000119999997
   6535, 0.000140499993, 0.000125000006
   6536, 0.000140499993,      0.00013
   6537, 0.000140499993, 0.000134999995
   6538, 0.000140499993, 0.000140000004
   6539, 0.000140499993, 0.000144999998
   6540, 0.000140499993, 0.000150000007
   6541, 0.000140499993, 0.000155000002
   6542, 0.000140499993, 0.000159999996
   6543, 0.000140499993, 0.000165000005
   6544, 0.000140499993, 0.000169999999
   6545, 0.000140499993, 0.000174999994
   6546, 0.000140499993, 0.000180000003
   6547, 0.000140499993, 0.000184999997
   6548, 0.000140499993, 0.000190000006
   6549, 0.000140499993, 0.000195000001
   6550, 0.000138999996, 4.99999987e-06
   6551, 0.000138999996, 9.99999975e-06
   6552, 0.000138999996, 1.49999996e-05
   6553, 0.000138999996, 1.99999995e-05
   6554, 0.000138999996, 2.49999994e-05
   6555, 0.000138999996, 2.99999992e-05
   6556, 0.000138999996, 3.50000009e-05
   6557, 0.000138999996, 3.9999999e-05
   6558, 0.000138999996, 4.50000007e-05
   6559, 0.000138999996, 4.99999987e-05
   6560, 0.000138999996, 5.50000004e-05
   6561, 0.000138999996, 5.99999985e-05
   6562, 0.000138999996, 6.50000002e-05
   6563, 0.000138999996, 7.00000019e-05
   6564, 0.000138999996, 7.50000036e-05
   6565, 0.000138999996, 7.9999998e-05
   6566, 0.000138999996, 8.49999997e-05
   6567, 0.000138999996, 9.00000014e-05
   6568, 0.000138999996, 9.50000031e-05
   6569, 0.000138999996, 9.99999975e-05
   6570, 0.000138999996, 0.000104999999
   6571, 0.000138999996, 0.000110000001
   6572, 0.000138999996, 0.000115000003
   6573, 0.000138999996, 0.000119999997
   6574, 0.000138999996, 0.000125000006
   6575, 0.000138999996,      0.00013
   6576, 0.000138999996, 0.000134999995
   6577, 0.000138999996, 0.000140000004
   6578, 0.000138999996, 0.000144999998
   6579, 0.000138999996, 0.000150000007
   6580, 0.000138999996, 0.000155000002
   6581, 0.000138999996, 0.000159999996
   6582, 0.000138999996, 0.000165000005
   6583, 0.000138999996, 0.000169999999
   6584, 0.000138999996, 0.000174999994
   6585, 0.000138999996, 0.000180000003
   6586, 0.000138999996, 0.000184999997
   6587, 0.000138999996, 0.000190000006
   6588, 0.000138999996, 0.000195000001
   6589, 0.000137499999, 4.99999987e-06
   6590, 0.000137499999, 9.99999975e-06
   6591, 0.000137499999, 1.49999996e-05
   6592, 0.000137499999, 1.99999995e-05
   6593, 0.000137499999, 2.49999994e-05
   6594, 0.000137499999, 2.99999992e-05
   6595, 0.000137499999, 3.50000009e-05
   6596, 0.000137499999, 3.9999999e-05
   6597, 0.000137499999, 4.50000007e-05
   6598, 0.000137499999, 4.99999987e-05
   6599, 0.000137499999, 5.50000004e-05
   6600, 0.000137499999, 5.99999985e-05
   6601, 0.000137499999, 6.50000002e-05
   6602, 0.000137499999, 7.00000019e-05
   6603, 0.000137499999, 7.50000036e-05
   6604, 0.000137499999, 7.9999998e-05
   6605, 0.000137499999, 8.49999997e-05
   6606, 0.000137499999, 9.00000014e-05
   6607, 0.000137499999, 9.50000031e-05
   6608, 0.000137499999, 9.99999975e-05
   6609, 0.000137499999, 0.000104999999
   6610, 0.000137499999, 0.000110000001
   6611, 0.000137499999, 0.000115000003
   6612, 0.000137499999, 0.000119999997
   6613, 0.000137499999, 0.000125000006
   6614, 0.000137499999,      0.00013
   6615, 0.000137499999, 0.000134999995
   6616, 0.000137499999, 0.000140000004
   6617, 0.000137499999, 0.000144999998
   6618, 0.000137499999, 0.000150000007
   6619, 0.000137499999, 0.000155000002
   6620, 0.000137499999, 0.000159999996
   6621, 0.000137499999, 0.000165000005
   6622, 0.000137499999, 0.000169999999
   6623, 0.000137499999, 0.000174999994
   6624, 0.000137499999, 0.000180000003
   6625, 0.000137499999, 0.000184999997
   6626, 0.000137499999, 0.000190000006
   6627, 0.000137499999, 0.000195000001
   6628, 0.000136000002, 4.99999987e-06
   6629, 0.000136000002, 9.99999975e-06
   6630, 0.000136000002, 1.49999996e-05
   6631, 0.000136000002, 1.99999995e-05
   6632, 0.000136000002, 2.49999994e-05
   6633, 0.000136000002, 2.99999992e-05
   6634, 0.000136000002, 3.50000009e-05
   6635, 0.000136000002, 3.9999999e-05
   6636, 0.000136000002, 4.50000007e-05
   6637, 0.000136000002, 4.99999987e-05
   6638, 0.000136000002, 5.50000004e-05
   6639, 0.000136000002, 5.99999985e-05
   6640, 0.000136000002, 6.50000002e-05
   6641, 0.000136000002, 7.00000019e-05
   6642, 0.000136000002, 7.50000036e-05
   6643, 0.000136000002, 7.9999998e-05
   6644, 0.000136000002, 8.49999997e-05
   6645, 0.000136000002, 9.00000014e-05
   6646, 0.000136000002, 9.50000031e-05
   6647, 0.000136000002, 9.99999975e-05
   6648, 0.000136000002, 0.000104999999
   6649, 0.000136000002, 0.000110000001
   6650, 0.000136000002, 0.000115000003
   6651, 0.000136000002, 0.000119999997
   6652, 0.000136000002, 0.000125000006
   6653, 0.000136000002,      0.00013
   6654, 0.000136000002, 0.000134999995
   6655, 0.000136000002, 0.000140000004
   6656, 0.000136000002, 0.000144999998
   6657, 0.000136000002, 0.000150000007
   6658, 0.000136000002, 0.000155000002
   6659, 0.000136000002, 0.000159999996
   6660, 0.000136000002, 0.000165000005
   6661, 0.000136000002, 0.000169999999
   6662, 0.000136000002, 0.000174999994
   6663, 0.000136000002, 0.000180000003
   6664, 0.000136000002, 0.000184999997
   6665, 0.000136000002, 0.000190000006
   6666, 0.000136000002, 0.000195000001
   6667, 0.000134500006, 4.99999987e-06
   6668, 0.000134500006, 9.99999975e-06
   6669, 0.000134500006, 1.49999996e-05
   6670, 0.000134500006, 1.99999995e-05
   6671, 0.000134500006, 2.49999994e-05
   6672, 0.000134500006, 2.99999992e-05
   6673, 0.000134500006, 3.50000009e-05
   6674, 0.000134500006, 3.9999999e-05
   6675, 0.000134500006, 4.50000007e-05
   6676, 0.000134500006, 4.99999987e-05
   6677, 0.000134500006, 5.50000004e-05
   6678, 0.000134500006, 5.99999985e-05
   6679, 0.000134500006, 6.50000002e-05
   6680, 0.000134500006, 7.00000019e-05
   6681, 0.000134500006, 7.50000036e-05
   6682, 0.000134500006, 7.9999998e-05
   6683, 0.000134500006, 8.49999997e-05
   6684, 0.000134500006, 9.00000014e-05
   6685, 0.000134500006, 9.50000031e-05
   6686, 0.000134500006, 9.99999975e-05
   6687, 0.000134500006, 0.000104999999
   6688, 0.000134500006, 0.000110000001
   6689, 0.000134500006, 0.000115000003
   6690, 0.000134500006, 0.000119999997
   6691, 0.000134500006, 0.000125000006
   6692, 0.000134500006,      0.00013
   6693, 0.000134500006, 0.000134999995
   6694, 0.000134500006, 0.000140000004
   6695, 0.000134500006, 0.000144999998
   6696, 0.000134500006, 0.000150000007
   6697, 0.000134500006, 0.000155000002
   6698, 0.000134500006, 0.000159999996
   6699, 0.000134500006, 0.000165000005
   6700, 0.000134500006, 0.000169999999
   6701, 0.000134500006, 0.000174999994
   6702, 0.000134500006, 0.000180000003
   6703, 0.000134500006, 0.000184999997
   6704, 0.000134500006, 0.000190000006
   6705, 0.000134500006, 0.000195000001
   6706, 0.000132999994, 4.99999987e-06
   6707, 0.000132999994, 9.99999975e-06
   6708, 0.000132999994, 1.49999996e-05
   6709, 0.000132999994, 1.99999995e-05
   6710, 0.000132999994, 2.49999994e-05
   6711, 0.000132999994, 2.99999992e-05
   6712, 0.000132999994, 3.50000009e-05
   6713, 0.000132999994, 3.9999999e-05
   6714, 0.000132999994, 4.50000007e-05
   6715, 0.000132999994, 4.99999987e-05
   6716, 0.000132999994, 5.50000004e-05
   6717, 0.000132999994, 5.99999985e-05
   6718, 0.000132999994, 6.50000002e-05
   6719, 0.000132999994, 7.00000019e-05
   6720, 0.000132999994, 7.50000036e-05
   6721, 0.000132999994, 7.9999998e-05
   6722, 0.000132999994, 8.49999997e-05
   6723, 0.000132999994, 9.00000014e-05
   6724, 0.000132999994, 9.50000031e-05
   6725, 0.000132999994, 9.99999975e-05
   6726, 0.000132999994, 0.000104999999
   6727, 0.000132999994, 0.000110000001
   6728, 0.000132999994, 0.000115000003
   6729, 0.000132999994, 0.000119999997
   6730, 0.000132999994, 0.000125000006
   6731, 0.000132999994,      0.00013
   6732, 0.000132999994, 0.000134999995
   6733, 0.000132999994, 0.000140000004
   6734, 0.000132999994, 0.000144999998
   6735, 0.000132999994, 0.000150000007
   6736, 0.000132999994, 0.000155000002
   6737, 0.000132999994, 0.000159999996
   6738, 0.000132999994, 0.000165000005
   6739, 0.000132999994, 0.000169999999
   6740, 0.000132999994, 0.000174999994
   6741, 0.000132999994, 0.000180000003
   6742, 0.000132999994, 0.000184999997
   6743, 0.000132999994, 0.000190000006
   6744, 0.000132999994, 0.000195000001
   6745, 0.000131499997, 4.99999987e-06
   6746, 0.000131499997, 9.99999975e-06
   6747, 0.000131499997, 1.49999996e-05
   6748, 0.000131499997, 1.99999995e-05
   6749, 0.000131499997, 2.49999994e-05
   6750, 0.000131499997, 2.99999992e-05
   6751, 0.000131499997, 3.50000009e-05
   6752, 0.000131499997, 3.9999999e-05
   6753, 0.000131499997, 4.50000007e-05
   6754, 0.000131499997, 4.99999987e-05
   6755, 0.000131499997, 5.50000004e-05
   6756, 0.000131499997, 5.99999985e-05
   6757, 0.000131499997, 6.50000002e-05
   6758, 0.000131499997, 7.00000019e-05
   6759, 0.000131499997, 7.50000036e-05
   6760, 0.000131499997, 7.9999998e-05
   6761, 0.000131499997, 8.49999997e-05
   6762, 0.000131499997, 9.00000014e-05
   6763, 0.000131499997, 9.50000031e-05
   6764, 0.000131499997, 9.99999975e-05
   6765, 0.000131499997, 0.000104999999
   6766, 0.000131499997, 0.000110000001
   6767, 0.000131499997, 0.000115000003
   6768, 0.000131499997, 0.000119999997
   6769, 0.000131499997, 0.000125000006
   6770, 0.000131499997,      0.00013
   6771, 0.000131499997, 0.000134999995
   6772, 0.000131499997, 0.000140000004
   6773, 0.000131499997, 0.000144999998
   6774, 0.000131499997, 0.000150000007
   6775, 0.000131499997, 0.000155000002
   6776, 0.000131499997, 0.000159999996
   6777, 0.000131499997, 0.000165000005
   6778, 0.000131499997, 0.000169999999
   6779, 0.000131499997, 0.000174999994
   6780, 0.000131499997, 0.000180000003
   6781, 0.000131499997, 0.000184999997
   6782, 0.000131499997, 0.000190000006
   6783, 0.000131499997, 0.000195000001
   6784, 0.000125000006, 4.99999987e-06
   6785, 0.000125000006, 9.99999975e-06
   6786, 0.000125000006, 1.49999996e-05
   6787, 0.000125000006, 1.99999995e-05
   6788, 0.000125000006, 2.49999994e-05
   6789, 0.000125000006, 2.99999992e-05
   6790, 0.000125000006, 3.50000009e-05
   6791, 0.000125000006, 3.9999999e-05
   6792, 0.000125000006, 4.50000007e-05
   6793, 0.000125000006, 4.99999987e-05
   6794, 0.000125000006, 5.50000004e-05
   6795, 0.000125000006, 5.99999985e-05
   6796, 0.000125000006, 6.50000002e-05
   6797, 0.000125000006, 7.00000019e-05
   6798, 0.000125000006, 7.50000036e-05
   6799, 0.000125000006, 7.9999998e-05
   6800, 0.000125000006, 8.49999997e-05
   6801, 0.000125000006, 9.00000014e-05
   6802, 0.000125000006, 9.50000031e-05
   6803, 0.000125000006, 9.99999975e-05
   6804, 0.000125000006, 0.000104999999
   6805, 0.000125000006, 0.000110000001
   6806, 0.000125000006, 0.000115000003
   6807, 0.000125000006, 0.000119999997
   6808, 0.000125000006, 0.000125000006
   6809, 0.000125000006,      0.00013
   6810, 0.000125000006, 0.000134999995
   6811, 0.000125000006, 0.000140000004
   6812, 0.000125000006, 0.000144999998
   6813, 0.000125000006, 0.000150000007
   6814, 0.000125000006, 0.000155000002
   6815, 0.000125000006, 0.000159999996
   6816, 0.000125000006, 0.000165000005
   6817, 0.000125000006, 0.000169999999
   6818, 0.000125000006, 0.000174999994
   6819, 0.000125000006, 0.000180000003
   6820, 0.000125000006, 0.000184999997
   6821, 0.000125000006, 0.000190000006
   6822, 0.000125000006, 0.000195000001
   6823, 0.000119999997, 4.99999987e-06
   6824, 0.000119999997, 9.99999975e-06
   6825, 0.000119999997, 1.49999996e-05
   6826, 0.000119999997, 1.99999995e-05
   6827, 0.000119999997, 2.49999994e-05
   6828, 0.000119999997, 2.99999992e-05
   6829, 0.000119999997, 3.50000009e-05
   6830, 0.000119999997, 3.9999999e-05
   6831, 0.000119999997, 4.50000007e-05
   6832, 0.000119999997, 4.99999987e-05
   6833, 0.000119999997, 5.50000004e-05
   6834, 0.000119999997, 5.99999985e-05
   6835, 0.000119999997, 6.50000002e-05
   6836, 0.000119999997, 7.00000019e-05
   6837, 0.000119999997, 7.50000036e-05
   6838, 0.000119999997, 7.9999998e-05
   6839, 0.000119999997, 8.49999997e-05
   6840, 0.000119999997, 9.00000014e-05
   6841, 0.000119999997, 9.50000031e-05
   6842, 0.000119999997, 9.99999975e-05
   6843, 0.000119999997, 0.000104999999
   6844, 0.000119999997, 0.000110000001
   6845, 0.000119999997, 0.000115000003
   6846, 0.000119999997, 0.000119999997
   6847, 0.000119999997, 0.000125000006
   6848, 0.000119999997,      0.00013
   6849, 0.000119999997, 0.000134999995
   6850, 0.000119999997, 0.000140000004
   6851, 0.000119999997, 0.000144999998
   6852, 0.000119999997, 0.000150000007
   6853, 0.000119999997, 0.000155000002
   6854, 0.000119999997, 0.000159999996
   6855, 0.000119999997, 0.000165000005
   6856, 0.000119999997, 0.000169999999
   6857, 0.000119999997, 0.000174999994
   6858, 0.000119999997, 0.000180000003
   6859, 0.000119999997, 0.000184999997
   6860, 0.000119999997, 0.000190000006
   6861, 0.000119999997, 0.000195000001
   6862, 0.000115000003, 4.99999987e-06
   6863, 0.000115000003, 9.99999975e-06
   6864, 0.000115000003, 1.49999996e-05
   6865, 0.000115000003, 1.99999995e-05
   6866, 0.000115000003, 2.49999994e-05
   6867, 0.000115000003, 2.99999992e-05
   6868, 0.000115000003, 3.50000009e-05
   6869, 0.000115000003, 3.9999999e-05
   6870, 0.000115000003, 4.50000007e-05
   6871, 0.000115000003, 4.99999987e-05
   6872, 0.000115000003, 5.50000004e-05
   6873, 0.000115000003, 5.99999985e-05
   6874, 0.000115000003, 6.50000002e-05
   6875, 0.000115000003, 7.00000019e-05
   6876, 0.000115000003, 7.50000036e-05
   6877, 0.000115000003, 7.9999998e-05
   6878, 0.000115000003, 8.49999997e-05
   6879, 0.000115000003, 9.00000014e-05
   6880, 0.000115000003, 9.50000031e-05
   6881, 0.000115000003, 9.99999975e-05
   6882, 0.000115000003, 0.000104999999
   6883, 0.000115000003, 0.000110000001
   6884, 0.000115000003, 0.000115000003
   6885, 0.000115000003, 0.000119999997
   6886, 0.000115000003, 0.000125000006
   6887, 0.000115000003,      0.00013
   6888, 0.000115000003, 0.000134999995
   6889, 0.000115000003, 0.000140000004
   6890, 0.000115000003, 0.000144999998
   6891, 0.000115000003, 0.000150000007
   6892, 0.000115000003, 0.000155000002
   6893, 0.000115000003, 0.000159999996
   6894, 0.000115000003, 0.000165000005
   6895, 0.000115000003, 0.000169999999
   6896, 0.000115000003, 0.000174999994
   6897, 0.000115000003, 0.000180000003
   6898, 0.000115000003, 0.000184999997
   6899, 0.000115000003, 0.000190000006
   6900, 0.000115000003, 0.000195000001
   6901, 0.000110000001, 4.99999987e-06
   6902, 0.000110000001, 9.99999975e-06
   6903, 0.000110000001, 1.49999996e-05
   6904, 0.000110000001, 1.99999995e-05
   6905, 0.000110000001, 2.49999994e-05
   6906, 0.000110000001, 2.99999992e-05
   6907, 0.000110000001, 3.50000009e-05
   6908, 0.000110000001, 3.9999999e-05
   6909, 0.000110000001, 4.50000007e-05
   6910, 0.000110000001, 4.99999987e-05
   6911, 0.000110000001, 5.50000004e-05
   6912, 0.000110000001, 5.99999985e-05
   6913, 0.000110000001, 6.50000002e-05
   6914, 0.000110000001, 7.00000019e-05
   6915, 0.000110000001, 7.50000036e-05
   6916, 0.000110000001, 7.9999998e-05
   6917, 0.000110000001, 8.49999997e-05
   6918, 0.000110000001, 9.00000014e-05
   6919, 0.000110000001, 9.50000031e-05
   6920, 0.000110000001, 9.99999975e-05
   6921, 0.000110000001, 0.000104999999
   6922, 0.000110000001, 0.000110000001
   6923, 0.000110000001, 0.000115000003
   6924, 0.000110000001, 0.000119999997
   6925, 0.000110000001, 0.000125000006
   6926, 0.000110000001,      0.00013
   6927, 0.000110000001, 0.000134999995
   6928, 0.000110000001, 0.000140000004
   6929, 0.000110000001, 0.000144999998
   6930, 0.000110000001, 0.000150000007
   6931, 0.000110000001, 0.000155000002
   6932, 0.000110000001, 0.000159999996
   6933, 0.000110000001, 0.000165000005
   6934, 0.000110000001, 0.000169999999
   6935, 0.000110000001, 0.000174999994
   6936, 0.000110000001, 0.000180000003
   6937, 0.000110000001, 0.000184999997
   6938, 0.000110000001, 0.000190000006
   6939, 0.000110000001, 0.000195000001
   6940, 0.000104999999, 4.99999987e-06
   6941, 0.000104999999, 9.99999975e-06
   6942, 0.000104999999, 1.49999996e-05
   6943, 0.000104999999, 1.99999995e-05
   6944, 0.000104999999, 2.49999994e-05
   6945, 0.000104999999, 2.99999992e-05
   6946, 0.000104999999, 3.50000009e-05
   6947, 0.000104999999, 3.9999999e-05
   6948, 0.000104999999, 4.50000007e-05
   6949, 0.000104999999, 4.99999987e-05
   6950, 0.000104999999, 5.50000004e-05
   6951, 0.000104999999, 5.99999985e-05
   6952, 0.000104999999, 6.50000002e-05
   6953, 0.000104999999, 7.00000019e-05
   6954, 0.000104999999, 7.50000036e-05
   6955, 0.000104999999, 7.9999998e-05
   6956, 0.000104999999, 8.49999997e-05
   6957, 0.000104999999, 9.00000014e-05
   6958, 0.000104999999, 9.50000031e-05
   6959, 0.000104999999, 9.99999975e-05
   6960, 0.000104999999, 0.000104999999
   6961, 0.000104999999, 0.000110000001
   6962, 0.000104999999, 0.000115000003
   6963, 0.000104999999, 0.000119999997
   6964, 0.000104999999, 0.000125000006
   6965, 0.000104999999,      0.00013
   6966, 0.000104999999, 0.000134999995
   6967, 0.000104999999, 0.000140000004
   6968, 0.000104999999, 0.000144999998
   6969, 0.000104999999, 0.000150000007
   6970, 0.000104999999, 0.000155000002
   6971, 0.000104999999, 0.000159999996
   6972, 0.000104999999, 0.000165000005
   6973, 0.000104999999, 0.000169999999
   6974, 0.000104999999, 0.000174999994
   6975, 0.000104999999, 0.000180000003
   6976, 0.000104999999, 0.000184999997
   6977, 0.000104999999, 0.000190000006
   6978, 0.000104999999, 0.000195000001
   6979, 9.99999975e-05, 4.99999987e-06
   6980, 9.99999975e-05, 9.99999975e-06
   6981, 9.99999975e-05, 1.49999996e-05
   6982, 9.99999975e-05, 1.99999995e-05
   6983, 9.99999975e-05, 2.49999994e-05
   6984, 9.99999975e-05, 2.99999992e-05
   6985, 9.99999975e-05, 3.50000009e-05
   6986, 9.99999975e-05, 3.9999999e-05
   6987, 9.99999975e-05, 4.50000007e-05
   6988, 9.99999975e-05, 4.99999987e-05
   6989, 9.99999975e-05, 5.50000004e-05
   6990, 9.99999975e-05, 5.99999985e-05
   6991, 9.99999975e-05, 6.50000002e-05
   6992, 9.99999975e-05, 7.00000019e-05
   6993, 9.99999975e-05, 7.50000036e-05
   6994, 9.99999975e-05, 7.9999998e-05
   6995, 9.99999975e-05, 8.49999997e-05
   6996, 9.99999975e-05, 9.00000014e-05
   6997, 9.99999975e-05, 9.50000031e-05
   6998, 9.99999975e-05, 9.99999975e-05
   6999, 9.99999975e-05, 0.000104999999
   7000, 9.99999975e-05, 0.000110000001
   7001, 9.99999975e-05, 0.000115000003
   7002, 9.99999975e-05, 0.000119999997
   7003, 9.99999975e-05, 0.000125000006
   7004, 9.99999975e-05,      0.00013
   7005, 9.99999975e-05, 0.000134999995
   7006, 9.99999975e-05, 0.000140000004
   7007, 9.99999975e-05, 0.000144999998
   7008, 9.99999975e-05, 0.000150000007
   7009, 9.99999975e-05, 0.000155000002
   7010, 9.99999975e-05, 0.000159999996
   7011, 9.99999975e-05, 0.000165000005
   7012, 9.99999975e-05, 0.000169999999
   7013, 9.99999975e-05, 0.000174999994
   7014, 9.99999975e-05, 0.000180000003
   7015, 9.99999975e-05, 0.000184999997
   7016, 9.99999975e-05, 0.000190000006
   7017, 9.99999975e-05, 0.000195000001
   7018, 9.50000031e-05, 4.99999987e-06
   7019, 9.50000031e-05, 9.99999975e-06
   7020, 9.50000031e-05, 1.49999996e-05
   7021, 9.50000031e-05, 1.99999995e-05
   7022, 9.50000031e-05, 2.49999994e-05
   7023, 9.50000031e-05, 2.99999992e-05
   7024, 9.50000031e-05, 3.50000009e-05
   7025, 9.50000031e-05, 3.9999999e-05
   7026, 9.50000031e-05, 4.50000007e-05
   7027, 9.50000031e-05, 4.99999987e-05
   7028, 9.50000031e-05, 5.50000004e-05
   7029, 9.50000031e-05, 5.99999985e-05
   7030, 9.50000031e-05, 6.50000002e-05
   7031, 9.50000031e-05, 7.00000019e-05
   7032, 9.50000031e-05, 7.50000036e-05
   7033, 9.50000031e-05, 7.9999998e-05
   7034, 9.50000031e-05, 8.49999997e-05
   7035, 9.50000031e-05, 9.00000014e-05
   7036, 9.50000031e-05, 9.50000031e-05
   7037, 9.50000031e-05, 9.99999975e-05
   7038, 9.50000031e-05, 0.000104999999
   7039, 9.50000031e-05, 0.000110000001
   7040, 9.50000031e-05, 0.000115000003
   7041, 9.50000031e-05, 0.000119999997
   7042, 9.50000031e-05, 0.000125000006
   7043, 9.50000031e-05,      0.00013
   7044, 9.50000031e-05, 0.000134999995
   7045, 9.50000031e-05, 0.000140000004
   7046, 9.50000031e-05, 0.000144999998
   7047, 9.50000031e-05, 0.000150000007
   7048, 9.50000031e-05, 0.000155000002
   7049, 9.50000031e-05, 0.000159999996
   7050, 9.50000031e-05, 0.000165000005
   7051, 9.50000031e-05, 0.000169999999
   7052, 9.50000031e-05, 0.000174999994
   7053, 9.50000031e-05, 0.000180000003
   7054, 9.50000031e-05, 0.000184999997
   7055, 9.50000031e-05, 0.000190000006
   7056, 9.50000031e-05, 0.000195000001
   7057, 9.00000014e-05, 4.99999987e-06
   7058, 9.00000014e-05, 9.99999975e-06
   7059, 9.00000014e-05, 1.49999996e-05
   7060, 9.00000014e-05, 1.99999995e-05
   7061, 9.00000014e-05, 2.49999994e-05
   7062, 9.00000014e-05, 2.99999992e-05
   7063, 9.00000014e-05, 3.50000009e-05
   7064, 9.00000014e-05, 3.9999999e-05
   7065, 9.00000014e-05, 4.50000007e-05
   7066, 9.00000014e-05, 4.99999987e-05
   7067, 9.00000014e-05, 5.50000004e-05
   7068, 9.00000014e-05, 5.99999985e-05
   7069, 9.00000014e-05, 6.50000002e-05
   7070, 9.00000014e-05, 7.00000019e-05
   7071, 9.00000014e-05, 7.50000036e-05
   7072, 9.00000014e-05, 7.9999998e-05
   7073, 9.00000014e-05, 8.49999997e-05
   7074, 9.00000014e-05, 9.00000014e-05
   7075, 9.00000014e-05, 9.50000031e-05
   7076, 9.00000014e-05, 9.99999975e-05
   7077, 9.00000014e-05, 0.000104999999
   7078, 9.00000014e-05, 0.000110000001
   7079, 9.00000014e-05, 0.000115000003
   7080, 9.00000014e-05, 0.000119999997
   7081, 9.00000014e-05, 0.000125000006
   7082, 9.00000014e-05,      0.00013
   7083, 9.00000014e-05, 0.000134999995
   7084, 9.00000014e-05, 0.000140000004
   7085, 9.00000014e-05, 0.000144999998
   7086, 9.00000014e-05, 0.000150000007
   7087, 9.00000014e-05, 0.000155000002
   7088, 9.00000014e-05, 0.000159999996
   7089, 9.00000014e-05, 0.000165000005
   7090, 9.00000014e-05, 0.000169999999
   7091, 9.00000014e-05, 0.000174999994
   7092, 9.00000014e-05, 0.000180000003
   7093, 9.00000014e-05, 0.000184999997
   7094, 9.00000014e-05, 0.000190000006
   7095, 9.00000014e-05, 0.000195000001
   7096, 8.49999997e-05, 4.99999987e-06
   7097, 8.49999997e-05, 9.99999975e-06
   7098, 8.49999997e-05, 1.49999996e-05
   7099, 8.49999997e-05, 1.99999995e-05
   7100, 8.49999997e-05, 2.49999994e-05
   7101, 8.49999997e-05, 2.99999992e-05
   7102, 8.49999997e-05, 3.50000009e-05
   7103, 8.49999997e-05, 3.9999999e-05
   7104, 8.49999997e-05, 4.50000007e-05
   7105, 8.49999997e-05, 4.99999987e-05
   7106, 8.49999997e-05, 5.50000004e-05
   7107, 8.49999997e-05, 5.99999985e-05
   7108, 8.49999997e-05, 6.50000002e-05
   7109, 8.49999997e-05, 7.00000019e-05
   7110, 8.49999997e-05, 7.50000036e-05
   7111, 8.49999997e-05, 7.9999998e-05
   7112, 8.49999997e-05, 8.49999997e-05
   7113, 8.49999997e-05, 9.00000014e-05
   7114, 8.49999997e-05, 9.50000031e-05
   7115, 8.49999997e-05, 9.99999975e-05
   7116, 8.49999997e-05, 0.000104999999
   7117, 8.49999997e-05, 0.000110000001
   7118, 8.49999997e-05, 0.000115000003
   7119, 8.49999997e-05, 0.000119999997
   7120, 8.49999997e-05, 0.000125000006
   7121, 8.49999997e-05,      0.00013
   7122, 8.49999997e-05, 0.000134999995
   7123, 8.49999997e-05, 0.000140000004
   7124, 8.49999997e-05, 0.000144999998
   7125, 8.49999997e-05, 0.000150000007
   7126, 8.49999997e-05, 0.000155000002
   7127, 8.49999997e-05, 0.000159999996
   7128, 8.49999997e-05, 0.000165000005
   7129, 8.49999997e-05, 0.000169999999
   7130, 8.49999997e-05, 0.000174999994
   7131, 8.49999997e-05, 0.000180000003
   7132, 8.49999997e-05, 0.000184999997
   7133, 8.49999997e-05, 0.000190000006
   7134, 8.49999997e-05, 0.000195000001
   7135, 7.9999998e-05, 4.99999987e-06
   7136, 7.9999998e-05, 9.99999975e-06
   7137, 7.9999998e-05, 1.49999996e-05
   7138, 7.9999998e-05, 1.99999995e-05
   7139, 7.9999998e-05, 2.49999994e-05
   7140, 7.9999998e-05, 2.99999992e-05
   7141, 7.9999998e-05, 3.50000009e-05
   7142, 7.9999998e-05, 3.9999999e-05
   7143, 7.9999998e-05, 4.50000007e-05
   7144, 7.9999998e-05, 4.99999987e-05
   7145, 7.9999998e-05, 5.50000004e-05
   7146, 7.9999998e-05, 5.99999985e-05
   7147, 7.9999998e-05, 6.50000002e-05
   7148, 7.9999998e-05, 7.00000019e-05
   7149, 7.9999998e-05, 7.50000036e-05
   7150, 7.9999998e-05, 7.9999998e-05
   7151, 7.9999998e-05, 8.49999997e-05
   7152, 7.9999998e-05, 9.00000014e-05
   7153, 7.9999998e-05, 9.50000031e-05
   7154, 7.9999998e-05, 9.99999975e-05
   7155, 7.9999998e-05, 0.000104999999
   7156, 7.9999998e-05, 0.000110000001
   7157, 7.9999998e-05, 0.000115000003
   7158, 7.9999998e-05, 0.000119999997
   7159, 7.9999998e-05, 0.000125000006
   7160, 7.9999998e-05,      0.00013
   7161, 7.9999998e-05, 0.000134999995
   7162, 7.9999998e-05, 0.000140000004
   7163, 7.9999998e-05, 0.000144999998
   7164, 7.9999998e-05, 0.000150000007
   7165, 7.9999998e-05, 0.000155000002
   7166, 7.9999998e-05, 0.000159999996
   7167, 7.9999998e-05, 0.000165000005
   7168, 7.9999998e-05, 0.000169999999
   7169, 7.9999998e-05, 0.000174999994
   7170, 7.9999998e-05, 0.000180000003
   7171, 7.9999998e-05, 0.000184999997
   7172, 7.9999998e-05, 0.000190000006
   7173, 7.9999998e-05, 0.000195000001
   7174, 7.50000036e-05, 4.99999987e-06
   7175, 7.50000036e-05, 9.99999975e-06
   7176, 7.50000036e-05, 1.49999996e-05
   7177, 7.50000036e-05, 1.99999995e-05
   7178, 7.50000036e-05, 2.49999994e-05
   7179, 7.50000036e-05, 2.99999992e-05
   7180, 7.50000036e-05, 3.50000009e-05
   7181, 7.50000036e-05, 3.9999999e-05
   7182, 7.50000036e-05, 4.50000007e-05
   7183, 7.50000036e-05, 4.99999987e-05
   7184, 7.50000036e-05, 5.50000004e-05
   7185, 7.50000036e-05, 5.99999985e-05
   7186, 7.50000036e-05, 6.50000002e-05
   7187, 7.50000036e-05, 7.00000019e-05
   7188, 7.50000036e-05, 7.50000036e-05
   7189, 7.50000036e-05, 7.9999998e-05
   7190, 7.50000036e-05, 8.49999997e-05
   7191, 7.50000036e-05, 9.00000014e-05
   7192, 7.50000036e-05, 9.50000031e-05
   7193, 7.50000036e-05, 9.99999975e-05
   7194, 7.50000036e-05, 0.000104999999
   7195, 7.50000036e-05, 0.000110000001
   7196, 7.50000036e-05, 0.000115000003
   7197, 7.50000036e-05, 0.000119999997
   7198, 7.50000036e-05, 0.000125000006
   7199, 7.50000036e-05,      0.00013
   7200, 7.50000036e-05, 0.000134999995
   7201, 7.50000036e-05, 0.000140000004
   7202, 7.50000036e-05, 0.000144999998
   7203, 7.50000036e-05, 0.000150000007
   7204, 7.50000036e-05, 0.000155000002
   7205, 7.50000036e-05, 0.000159999996
   7206, 7.50000036e-05, 0.000165000005
   7207, 7.50000036e-05, 0.000169999999
   7208, 7.50000036e-05, 0.000174999994
   7209, 7.50000036e-05, 0.000180000003
   7210, 7.50000036e-05, 0.000184999997
   7211, 7.50000036e-05, 0.000190000006
   7212, 7.50000036e-05, 0.000195000001
   7213, 7.00000019e-05, 4.99999987e-06
   7214, 7.00000019e-05, 9.99999975e-06
   7215, 7.00000019e-05, 1.49999996e-05
   7216, 7.00000019e-05, 1.99999995e-05
   7217, 7.00000019e-05, 2.49999994e-05
   7218, 7.00000019e-05, 2.99999992e-05
   7219, 7.00000019e-05, 3.50000009e-05
   7220, 7.00000019e-05, 3.9999999e-05
   7221, 7.00000019e-05, 4.50000007e-05
   7222, 7.00000019e-05, 4.99999987e-05
   7223, 7.00000019e-05, 5.50000004e-05
   7224, 7.00000019e-05, 5.99999985e-05
   7225, 7.00000019e-05, 6.50000002e-05
   7226, 7.00000019e-05, 7.00000019e-05
   7227, 7.00000019e-05, 7.50000036e-05
   7228, 7.00000019e-05, 7.9999998e-05
   7229, 7.00000019e-05, 8.49999997e-05
   7230, 7.00000019e-05, 9.00000014e-05
   7231, 7.00000019e-05, 9.50000031e-05
   7232, 7.00000019e-05, 9.99999975e-05
   7233, 7.00000019e-05, 0.000104999999
   7234, 7.00000019e-05, 0.000110000001
   7235, 7.00000019e-05, 0.000115000003
   7236, 7.00000019e-05, 0.000119999997
   7237, 7.00000019e-05, 0.000125000006
   7238, 7.00000019e-05,      0.00013
   7239, 7.00000019e-05, 0.000134999995
   7240, 7.00000019e-05, 0.000140000004
   7241, 7.00000019e-05, 0.000144999998
   7242, 7.00000019e-05, 0.000150000007
   7243, 7.00000019e-05, 0.000155000002
   7244, 7.00000019e-05, 0.000159999996
   7245, 7.00000019e-05, 0.000165000005
   7246, 7.00000019e-05, 0.000169999999
   7247, 7.00000019e-05, 0.000174999994
   7248, 7.00000019e-05, 0.000180000003
   7249, 7.00000019e-05, 0.000184999997
   7250, 7.00000019e-05, 0.000190000006
   7251, 7.00000019e-05, 0.000195000001
   7252, 6.50000002e-05, 4.99999987e-06
   7253, 6.50000002e-05, 9.99999975e-06
   7254, 6.50000002e-05, 1.49999996e-05
   7255, 6.50000002e-05, 1.99999995e-05
   7256, 6.50000002e-05, 2.49999994e-05
   7257, 6.50000002e-05, 2.99999992e-05
   7258, 6.50000002e-05, 3.50000009e-05
   7259, 6.50000002e-05, 3.9999999e-05
   7260, 6.50000002e-05, 4.50000007e-05
   7261, 6.50000002e-05, 4.99999987e-05
   7262, 6.50000002e-05, 5.50000004e-05
   7263, 6.50000002e-05, 5.99999985e-05
   7264, 6.50000002e-05, 6.50000002e-05
   7265, 6.50000002e-05, 7.00000019e-05
   7266, 6.50000002e-05, 7.50000036e-05
   7267, 6.50000002e-05, 7.9999998e-05
   7268, 6.50000002e-05, 8.49999997e-05
   7269, 6.50000002e-05, 9.00000014e-05
   7270, 6.50000002e-05, 9.50000031e-05
   7271, 6.50000002e-05, 9.99999975e-05
   7272, 6.50000002e-05, 0.000104999999
   7273, 6.50000002e-05, 0.000110000001
   7274, 6.50000002e-05, 0.000115000003
   7275, 6.50000002e-05, 0.000119999997
   7276, 6.50000002e-05, 0.000125000006
   7277, 6.50000002e-05,      0.00013
   7278, 6.50000002e-05, 0.000134999995
   7279, 6.50000002e-05, 0.000140000004
   7280, 6.50000002e-05, 0.000144999998
   7281, 6.50000002e-05, 0.000150000007
   7282, 6.50000002e-05, 0.000155000002
   7283, 6.50000002e-05, 0.000159999996
   7284, 6.50000002e-05, 0.000165000005
   7285, 6.50000002e-05, 0.000169999999
   7286, 6.50000002e-05, 0.000174999994
   7287, 6.50000002e-05, 0.000180000003
   7288, 6.50000002e-05, 0.000184999997
   7289, 6.50000002e-05, 0.000190000006
   7290, 6.50000002e-05, 0.000195000001
   7291, 5.99999985e-05, 4.99999987e-06
   7292, 5.99999985e-05, 9.99999975e-06
   7293, 5.99999985e-05, 1.49999996e-05
   7294, 5.99999985e-05, 1.99999995e-05
   7295, 5.99999985e-05, 2.49999994e-05
   7296, 5.99999985e-05, 2.99999992e-05
   7297, 5.99999985e-05, 3.50000009e-05
   7298, 5.99999985e-05, 3.9999999e-05
   7299, 5.99999985e-05, 4.50000007e-05
   7300, 5.99999985e-05, 4.99999987e-05
   7301, 5.99999985e-05, 5.50000004e-05
   7302, 5.99999985e-05, 5.99999985e-05
   7303, 5.99999985e-05, 6.50000002e-05
   7304, 5.99999985e-05, 7.00000019e-05
   7305, 5.99999985e-05, 7.50000036e-05
   7306, 5.99999985e-05, 7.9999998e-05
   7307, 5.99999985e-05, 8.49999997e-05
   7308, 5.99999985e-05, 9.00000014e-05
   7309, 5.99999985e-05, 9.50000031e-05
   7310, 5.99999985e-05, 9.99999975e-05
   7311, 5.99999985e-05, 0.000104999999
   7312, 5.99999985e-05, 0.000110000001
   7313, 5.99999985e-05, 0.000115000003
   7314, 5.99999985e-05, 0.000119999997
   7315, 5.99999985e-05, 0.000125000006
   7316, 5.99999985e-05,      0.00013
   7317, 5.99999985e-05, 0.000134999995
   7318, 5.99999985e-05, 0.000140000004
   7319, 5.99999985e-05, 0.000144999998
   7320, 5.99999985e-05, 0.000150000007
   7321, 5.99999985e-05, 0.000155000002
   7322, 5.99999985e-05, 0.000159999996
   7323, 5.99999985e-05, 0.000165000005
   7324, 5.99999985e-05, 0.000169999999
   7325, 5.99999985e-05, 0.000174999994
   7326, 5.99999985e-05, 0.000180000003
   7327, 5.99999985e-05, 0.000184999997
   7328, 5.99999985e-05, 0.000190000006
   7329, 5.99999985e-05, 0.000195000001
   7330, 5.50000004e-05, 4.99999987e-06
   7331, 5.50000004e-05, 9.99999975e-06
   7332, 5.50000004e-05, 1.49999996e-05
   7333, 5.50000004e-05, 1.99999995e-05
   7334, 5.50000004e-05, 2.49999994e-05
   7335, 5.50000004e-05, 2.99999992e-05
   7336, 5.50000004e-05, 3.50000009e-05
   7337, 5.50000004e-05, 3.9999999e-05
   7338, 5.50000004e-05, 4.50000007e-05
   7339, 5.50000004e-05, 4.99999987e-05
   7340, 5.50000004e-05, 5.50000004e-05
   7341, 5.50000004e-05, 5.99999985e-05
   7342, 5.50000004e-05, 6.50000002e-05
   7343, 5.50000004e-05, 7.00000019e-05
   7344, 5.50000004e-05, 7.50000036e-05
   7345, 5.50000004e-05, 7.9999998e-05
   7346, 5.50000004e-05, 8.49999997e-05
   7347, 5.50000004e-05, 9.00000014e-05
   7348, 5.50000004e-05, 9.50000031e-05
   7349, 5.50000004e-05, 9.99999975e-05
   7350, 5.50000004e-05, 0.000104999999
   7351, 5.50000004e-05, 0.000110000001
   7352, 5.50000004e-05, 0.000115000003
   7353, 5.50000004e-05, 0.000119999997
   7354, 5.50000004e-05, 0.000125000006
   7355, 5.50000004e-05,      0.00013
   7356, 5.50000004e-05, 0.000134999995
   7357, 5.50000004e-05, 0.000140000004
   7358, 5.50000004e-05, 0.000144999998
   7359, 5.50000004e-05, 0.000150000007
   7360, 5.50000004e-05, 0.000155000002
   7361, 5.50000004e-05, 0.000159999996
   7362, 5.50000004e-05, 0.000165000005
   7363, 5.50000004e-05, 0.000169999999
   7364, 5.50000004e-05, 0.000174999994
   7365, 5.50000004e-05, 0.000180000003
   7366, 5.50000004e-05, 0.000184999997
   7367, 5.50000004e-05, 0.000190000006
   7368, 5.50000004e-05, 0.000195000001
   7369, 4.99999987e-05, 4.99999987e-06
   7370, 4.99999987e-05, 9.99999975e-06
   7371, 4.99999987e-05, 1.49999996e-05
   7372, 4.99999987e-05, 1.99999995e-05
   7373, 4.99999987e-05, 2.49999994e-05
   7374, 4.99999987e-05, 2.99999992e-05
   7375, 4.99999987e-05, 3.50000009e-05
   7376, 4.99999987e-05, 3.9999999e-05
   7377, 4.99999987e-05, 4.50000007e-05
   7378, 4.99999987e-05, 4.99999987e-05
   7379, 4.99999987e-05, 5.50000004e-05
   7380, 4.99999987e-05, 5.99999985e-05
   7381, 4.99999987e-05, 6.50000002e-05
   7382, 4.99999987e-05, 7.00000019e-05
   7383, 4.99999987e-05, 7.50000036e-05
   7384, 4.99999987e-05, 7.9999998e-05
   7385, 4.99999987e-05, 8.49999997e-05
   7386, 4.99999987e-05, 9.00000014e-05
   7387, 4.99999987e-05, 9.50000031e-05
   7388, 4.99999987e-05, 9.99999975e-05
   7389, 4.99999987e-05, 0.000104999999
   7390, 4.99999987e-05, 0.000110000001
   7391, 4.99999987e-05, 0.000115000003
   7392, 4.99999987e-05, 0.000119999997
   7393, 4.99999987e-05, 0.000125000006
   7394, 4.99999987e-05,      0.00013
   7395, 4.99999987e-05, 0.000134999995
   7396, 4.99999987e-05, 0.000140000004
   7397, 4.99999987e-05, 0.000144999998
   7398, 4.99999987e-05, 0.000150000007
   7399, 4.99999987e-05, 0.000155000002
   7400, 4.99999987e-05, 0.000159999996
   7401, 4.99999987e-05, 0.000165000005
   7402, 4.99999987e-05, 0.000169999999
   7403, 4.99999987e-05, 0.000174999994
   7404, 4.99999987e-05, 0.000180000003
   7405, 4.99999987e-05, 0.000184999997
   7406, 4.99999987e-05, 0.000190000006
   7407, 4.99999987e-05, 0.000195000001
   7408, 4.50000007e-05, 4.99999987e-06
   7409, 4.50000007e-05, 9.99999975e-06
   7410, 4.50000007e-05, 1.49999996e-05
   7411, 4.50000007e-05, 1.99999995e-05
   7412, 4.50000007e-05, 2.49999994e-05
   7413, 4.50000007e-05, 2.99999992e-05
   7414, 4.50000007e-05, 3.50000009e-05
   7415, 4.50000007e-05, 3.9999999e-05
   7416, 4.50000007e-05, 4.50000007e-05
   7417, 4.50000007e-05, 4.99999987e-05
   7418, 4.50000007e-05, 5.50000004e-05
   7419, 4.50000007e-05, 5.99999985e-05
   7420, 4.50000007e-05, 6.50000002e-05
   7421, 4.50000007e-05, 7.00000019e-05
   7422, 4.50000007e-05, 7.50000036e-05
   7423, 4.50000007e-05, 7.9999998e-05
   7424, 4.50000007e-05, 8.49999997e-05
   7425, 4.50000007e-05, 9.00000014e-05
   7426, 4.50000007e-05, 9.50000031e-05
   7427, 4.50000007e-05, 9.99999975e-05
   7428, 4.50000007e-05, 0.000104999999
   7429, 4.50000007e-05, 0.000110000001
   7430, 4.50000007e-05, 0.000115000003
   7431, 4.50000007e-05, 0.000119999997
   7432, 4.50000007e-05, 0.000125000006
   7433, 4.50000007e-05,      0.00013
   7434, 4.50000007e-05, 0.000134999995
   7435, 4.50000007e-05, 0.000140000004
   7436, 4.50000007e-05, 0.000144999998
   7437, 4.50000007e-05, 0.000150000007
   7438, 4.50000007e-05, 0.000155000002
   7439, 4.50000007e-05, 0.000159999996
   7440, 4.50000007e-05, 0.000165000005
   7441, 4.50000007e-05, 0.000169999999
   7442, 4.50000007e-05, 0.000174999994
   7443, 4.50000007e-05, 0.000180000003
   7444, 4.50000007e-05, 0.000184999997
   7445, 4.50000007e-05, 0.000190000006
   7446, 4.50000007e-05, 0.000195000001
   7447, 3.9999999e-05, 4.99999987e-06
   7448, 3.9999999e-05, 9.99999975e-06
   7449, 3.9999999e-05, 1.49999996e-05
   7450, 3.9999999e-05, 1.99999995e-05
   7451, 3.9999999e-05, 2.49999994e-05
   7452, 3.9999999e-05, 2.99999992e-05
   7453, 3.9999999e-05, 3.50000009e-05
   7454, 3.9999999e-05, 3.9999999e-05
   7455, 3.9999999e-05, 4.50000007e-05
   7456, 3.9999999e-05, 4.99999987e-05
   7457, 3.9999999e-05, 5.50000004e-05
   7458, 3.9999999e-05, 5.99999985e-05
   7459, 3.9999999e-05, 6.50000002e-05
   7460, 3.9999999e-05, 7.00000019e-05
   7461, 3.9999999e-05, 7.50000036e-05
   7462, 3.9999999e-05, 7.9999998e-05
   7463, 3.9999999e-05, 8.49999997e-05
   7464, 3.9999999e-05, 9.00000014e-05
   7465, 3.9999999e-05, 9.50000031e-05
   7466, 3.9999999e-05, 9.99999975e-05
   7467, 3.9999999e-05, 0.000104999999
   7468, 3.9999999e-05, 0.000110000001
   7469, 3.9999999e-05, 0.000115000003
   7470, 3.9999999e-05, 0.000119999997
   7471, 3.9999999e-05, 0.000125000006
   7472, 3.9999999e-05,      0.00013
   7473, 3.9999999e-05, 0.000134999995
   7474, 3.9999999e-05, 0.000140000004
   7475, 3.9999999e-05, 0.000144999998
   7476, 3.9999999e-05, 0.000150000007
   7477, 3.9999999e-05, 0.000155000002
   7478, 3.9999999e-05, 0.000159999996
   7479, 3.9999999e-05, 0.000165000005
   7480, 3.9999999e-05, 0.000169999999
   7481, 3.9999999e-05, 0.000174999994
   7482, 3.9999999e-05, 0.000180000003
   7483, 3.9999999e-05, 0.000184999997
   7484, 3.9999999e-05, 0.000190000006
   7485, 3.9999999e-05, 0.000195000001
   7486, 3.50000009e-05, 4.99999987e-06
   7487, 3.50000009e-05, 9.99999975e-06
   7488, 3.50000009e-05, 1.49999996e-05
   7489, 3.50000009e-05, 1.99999995e-05
   7490, 3.50000009e-05, 2.49999994e-05
   7491, 3.50000009e-05, 2.99999992e-05
   7492, 3.50000009e-05, 3.50000009e-05
   7493, 3.50000009e-05, 3.9999999e-05
   7494, 3.50000009e-05, 4.50000007e-05
   7495, 3.50000009e-05, 4.99999987e-05
   7496, 3.50000009e-05, 5.50000004e-05
   7497, 3.50000009e-05, 5.99999985e-05
   7498, 3.50000009e-05, 6.50000002e-05
   7499, 3.50000009e-05, 7.00000019e-05
   7500, 3.50000009e-05, 7.50000036e-05
   7501, 3.50000009e-05, 7.9999998e-05
   7502, 3.50000009e-05, 8.49999997e-05
   7503, 3.50000009e-05, 9.00000014e-05
   7504, 3.50000009e-05, 9.50000031e-05
   7505, 3.50000009e-05, 9.99999975e-05
   7506, 3.50000009e-05, 0.000104999999
   7507, 3.50000009e-05, 0.000110000001
   7508, 3.50000009e-05, 0.000115000003
   7509, 3.50000009e-05, 0.000119999997
   7510, 3.50000009e-05, 0.000125000006
   7511, 3.50000009e-05,      0.00013
   7512, 3.50000009e-05, 0.000134999995
   7513, 3.50000009e-05, 0.000140000004
   7514, 3.50000009e-05, 0.000144999998
   7515, 3.50000009e-05, 0.000150000007
   7516, 3.50000009e-05, 0.000155000002
   7517, 3.50000009e-05, 0.000159999996
   7518, 3.50000009e-05, 0.000165000005
   7519, 3.50000009e-05, 0.000169999999
   7520, 3.50000009e-05, 0.000174999994
   7521, 3.50000009e-05, 0.000180000003
   7522, 3.50000009e-05, 0.000184999997
   7523, 3.50000009e-05, 0.000190000006
   7524, 3.50000009e-05, 0.000195000001
   7525, 2.99999992e-05, 4.99999987e-06
   7526, 2.99999992e-05, 9.99999975e-06
   7527, 2.99999992e-05, 1.49999996e-05
   7528, 2.99999992e-05, 1.99999995e-05
   7529, 2.99999992e-05, 2.49999994e-05
   7530, 2.99999992e-05, 2.99999992e-05
   7531, 2.99999992e-05, 3.50000009e-05
   7532, 2.99999992e-05, 3.9999999e-05
   7533, 2.99999992e-05, 4.50000007e-05
   7534, 2.99999992e-05, 4.99999987e-05
   7535, 2.99999992e-05, 5.50000004e-05
   7536, 2.99999992e-05, 5.99999985e-05
   7537, 2.99999992e-05, 6.50000002e-05
   7538, 2.99999992e-05, 7.00000019e-05
   7539, 2.99999992e-05, 7.50000036e-05
   7540, 2.99999992e-05, 7.9999998e-05
   7541, 2.99999992e-05, 8.49999997e-05
   7542, 2.99999992e-05, 9.00000014e-05
   7543, 2.99999992e-05, 9.50000031e-05
   7544, 2.99999992e-05, 9.99999975e-05
   7545, 2.99999992e-05, 0.000104999999
   7546, 2.99999992e-05, 0.000110000001
   7547, 2.99999992e-05, 0.000115000003
   7548, 2.99999992e-05, 0.000119999997
   7549, 2.99999992e-05, 0.000125000006
   7550, 2.99999992e-05,      0.00013
   7551, 2.99999992e-05, 0.000134999995
   7552, 2.99999992e-05, 0.000140000004
   7553, 2.99999992e-05, 0.000144999998
   7554, 2.99999992e-05, 0.000150000007
   7555, 2.99999992e-05, 0.000155000002
   7556, 2.99999992e-05, 0.000159999996
   7557, 2.99999992e-05, 0.000165000005
   7558, 2.99999992e-05, 0.000169999999
   7559, 2.99999992e-05, 0.000174999994
   7560, 2.99999992e-05, 0.000180000003
   7561, 2.99999992e-05, 0.000184999997
   7562, 2.99999992e-05, 0.000190000006
   7563, 2.99999992e-05, 0.000195000001
   7564, 2.49999994e-05, 4.99999987e-06
   7565, 2.49999994e-05, 9.99999975e-06
   7566, 2.49999994e-05, 1.49999996e-05
   7567, 2.49999994e-05, 1.99999995e-05
   7568, 2.49999994e-05, 2.49999994e-05
   7569, 2.49999994e-05, 2.99999992e-05
   7570, 2.49999994e-05, 3.50000009e-05
   7571, 2.49999994e-05, 3.9999999e-05
   7572, 2.49999994e-05, 4.50000007e-05
   7573, 2.49999994e-05, 4.99999987e-05
   7574, 2.49999994e-05, 5.50000004e-05
   7575, 2.49999994e-05, 5.99999985e-05
   7576, 2.49999994e-05, 6.50000002e-05
   7577, 2.49999994e-05, 7.00000019e-05
   7578, 2.49999994e-05, 7.50000036e-05
   7579, 2.49999994e-05, 7.9999998e-05
   7580, 2.49999994e-05, 8.49999997e-05
   7581, 2.49999994e-05, 9.00000014e-05
   7582, 2.49999994e-05, 9.50000031e-05
   7583, 2.49999994e-05, 9.99999975e-05
   7584, 2.49999994e-05, 0.000104999999
   7585, 2.49999994e-05, 0.000110000001
   7586, 2.49999994e-05, 0.000115000003
   7587, 2.49999994e-05, 0.000119999997
   7588, 2.49999994e-05, 0.000125000006
   7589, 2.49999994e-05,      0.00013
   7590, 2.49999994e-05, 0.000134999995
   7591, 2.49999994e-05, 0.000140000004
   7592, 2.49999994e-05, 0.000144999998
   7593, 2.49999994e-05, 0.000150000007
   7594, 2.49999994e-05, 0.000155000002
   7595, 2.49999994e-05, 0.000159999996
   7596, 2.49999994e-05, 0.000165000005
   7597, 2.49999994e-05, 0.000169999999
   7598, 2.49999994e-05, 0.000174999994
   7599, 2.49999994e-05, 0.000180000003
   7600, 2.49999994e-05, 0.000184999997
   7601, 2.49999994e-05, 0.000190000006
   7602, 2.49999994e-05, 0.000195000001
   7603, 1.99999995e-05, 4.99999987e-06
   7604, 1.99999995e-05, 9.99999975e-06
   7605, 1.99999995e-05, 1.49999996e-05
   7606, 1.99999995e-05, 1.99999995e-05
   7607, 1.99999995e-05, 2.49999994e-05
   7608, 1.99999995e-05, 2.99999992e-05
   7609, 1.99999995e-05, 3.50000009e-05
   7610, 1.99999995e-05, 3.9999999e-05
   7611, 1.99999995e-05, 4.50000007e-05
   7612, 1.99999995e-05, 4.99999987e-05
   7613, 1.99999995e-05, 5.50000004e-05
   7614, 1.99999995e-05, 5.99999985e-05
   7615, 1.99999995e-05, 6.50000002e-05
   7616, 1.99999995e-05, 7.00000019e-05
   7617, 1.99999995e-05, 7.50000036e-05
   7618, 1.99999995e-05, 7.9999998e-05
   7619, 1.99999995e-05, 8.49999997e-05
   7620, 1.99999995e-05, 9.00000014e-05
   7621, 1.99999995e-05, 9.50000031e-05
   7622, 1.99999995e-05, 9.99999975e-05
   7623, 1.99999995e-05, 0.000104999999
   7624, 1.99999995e-05, 0.000110000001
   7625, 1.99999995e-05, 0.000115000003
   7626, 1.99999995e-05, 0.000119999997
   7627, 1.99999995e-05, 0.000125000006
   7628, 1.99999995e-05,      0.00013
   7629, 1.99999995e-05, 0.000134999995
   7630, 1.99999995e-05, 0.000140000004
   7631, 1.99999995e-05, 0.000144999998
   7632, 1.99999995e-05, 0.000150000007
   7633, 1.99999995e-05, 0.000155000002
   7634, 1.99999995e-05, 0.000159999996
   7635, 1.99999995e-05, 0.000165000005
   7636, 1.99999995e-05, 0.000169999999
   7637, 1.99999995e-05, 0.000174999994
   7638, 1.99999995e-05, 0.000180000003
   7639, 1.99999995e-05, 0.000184999997
   7640, 1.99999995e-05, 0.000190000006
   7641, 1.99999995e-05, 0.000195000001
   7642, 1.49999996e-05, 4.99999987e-06
   7643, 1.49999996e-05, 9.99999975e-06
   7644, 1.49999996e-05, 1.49999996e-05
   7645, 1.49999996e-05, 1.99999995e-05
   7646, 1.49999996e-05, 2.49999994e-05
   7647, 1.49999996e-05, 2.99999992e-05
   7648, 1.49999996e-05, 3.50000009e-05
   7649, 1.49999996e-05, 3.9999999e-05
   7650, 1.49999996e-05, 4.50000007e-05
   7651, 1.49999996e-05, 4.99999987e-05
   7652, 1.49999996e-05, 5.50000004e-05
   7653, 1.49999996e-05, 5.99999985e-05
   7654, 1.49999996e-05, 6.50000002e-05
   7655, 1.49999996e-05, 7.00000019e-05
   7656, 1.49999996e-05, 7.50000036e-05
   7657, 1.49999996e-05, 7.9999998e-05
   7658, 1.49999996e-05, 8.49999997e-05
   7659, 1.49999996e-05, 9.00000014e-05
   7660, 1.49999996e-05, 9.50000031e-05
   7661, 1.49999996e-05, 9.99999975e-05
   7662, 1.49999996e-05, 0.000104999999
   7663, 1.49999996e-05, 0.000110000001
   7664, 1.49999996e-05, 0.000115000003
   7665, 1.49999996e-05, 0.000119999997
   7666, 1.49999996e-05, 0.000125000006
   7667, 1.49999996e-05,      0.00013
   7668, 1.49999996e-05, 0.000134999995
   7669, 1.49999996e-05, 0.000140000004
   7670, 1.49999996e-05, 0.000144999998
   7671, 1.49999996e-05, 0.000150000007
   7672, 1.49999996e-05, 0.000155000002
   7673, 1.49999996e-05, 0.000159999996
   7674, 1.49999996e-05, 0.000165000005
   7675, 1.49999996e-05, 0.000169999999
   7676, 1.49999996e-05, 0.000174999994
   7677, 1.49999996e-05, 0.000180000003
   7678, 1.49999996e-05, 0.000184999997
   7679, 1.49999996e-05, 0.000190000006
   7680, 1.49999996e-05, 0.000195000001
   7681, 9.99999975e-06, 4.99999987e-06
   7682, 9.99999975e-06, 9.99999975e-06
   7683, 9.99999975e-06, 1.49999996e-05
   7684, 9.99999975e-06, 1.99999995e-05
   7685, 9.99999975e-06, 2.49999994e-05
   7686, 9.99999975e-06, 2.99999992e-05
   7687, 9.99999975e-06, 3.50000009e-05
   7688, 9.99999975e-06, 3.9999999e-05
   7689, 9.99999975e-06, 4.50000007e-05
   7690, 9.99999975e-06, 4.99999987e-05
   7691, 9.99999975e-06, 5.50000004e-05
   7692, 9.99999975e-06, 5.99999985e-05
   7693, 9.99999975e-06, 6.50000002e-05
   7694, 9.99999975e-06, 7.00000019e-05
   7695, 9.99999975e-06, 7.50000036e-05
   7696, 9.99999975e-06, 7.9999998e-05
   7697, 9.99999975e-06, 8.49999997e-05
   7698, 9.99999975e-06, 9.00000014e-05
   7699, 9.99999975e-06, 9.50000031e-05
   7700, 9.99999975e-06, 9.99999975e-05
   7701, 9.99999975e-06, 0.000104999999
   7702, 9.99999975e-06, 0.000110000001
   7703, 9.99999975e-06, 0.000115000003
   7704, 9.99999975e-06, 0.000119999997
   7705, 9.99999975e-06, 0.000125000006
   7706, 9.99999975e-06,      0.00013
   7707, 9.99999975e-06, 0.000134999995
   7708, 9.99999975e-06, 0.000140000004
   7709, 9.99999975e-06, 0.000144999998
   7710, 9.99999975e-06, 0.000150000007
   7711, 9.99999975e-06, 0.000155000002
   7712, 9.99999975e-06, 0.000159999996
   7713, 9.99999975e-06, 0.000165000005
   7714, 9.99999975e-06, 0.000169999999
   7715, 9.99999975e-06, 0.000174999994
   7716, 9.99999975e-06, 0.000180000003
   7717, 9.99999975e-06, 0.000184999997
   7718, 9.99999975e-06, 0.000190000006
   7719, 9.99999975e-06, 0.000195000001
   7720, 4.99999987e-06, 4.99999987e-06
   7721, 4.99999987e-06, 9.99999975e-06
   7722, 4.99999987e-06, 1.49999996e-05
   7723, 4.99999987e-06, 1.99999995e-05
   7724, 4.99999987e-06, 2.49999994e-05
   7725, 4.99999987e-06, 2.99999992e-05
   7726, 4.99999987e-06, 3.50000009e-05
   7727, 4.99999987e-06, 3.9999999e-05
   7728, 4.99999987e-06, 4.50000007e-05
   7729, 4.99999987e-06, 4.99999987e-05
   7730, 4.99999987e-06, 5.50000004e-05
   7731, 4.99999987e-06, 5.99999985e-05
   7732, 4.99999987e-06, 6.50000002e-05
   7733, 4.99999987e-06, 7.00000019e-05
   7734, 4.99999987e-06, 7.50000036e-05
   7735, 4.99999987e-06, 7.9999998e-05
   7736, 4.99999987e-06, 8.49999997e-05
   7737, 4.99999987e-06, 9.00000014e-05
   7738, 4.99999987e-06, 9.50000031e-05
   7739, 4.99999987e-06, 9.99999975e-05
   7740, 4.99999987e-06, 0.000104999999
   7741, 4.99999987e-06, 0.000110000001
   7742, 4.99999987e-06, 0.000115000003
   7743, 4.99999987e-06, 0.000119999997
   7744, 4.99999987e-06, 0.000125000006
   7745, 4.99999987e-06,      0.00013
   7746, 4.99999987e-06, 0.000134999995
   7747, 4.99999987e-06, 0.000140000004
   7748, 4.99999987e-06, 0.000144999998
   7749, 4.99999987e-06, 0.000150000007
   7750, 4.99999987e-06, 0.000155000002
   7751, 4.99999987e-06, 0.000159999996
   7752, 4.99999987e-06, 0.000165000005
   7753, 4.99999987e-06, 0.000169999999
   7754, 4.99999987e-06, 0.000174999994
   7755, 4.99999987e-06, 0.000180000003
   7756, 4.99999987e-06, 0.000184999997
   7757, 4.99999987e-06, 0.000190000006
   7758, 4.99999987e-06, 0.000195000001
   7759, 0.000375000003, 0.000195000001
   7760, 0.000375000003, 0.000190000006
   7761, 0.000375000003, 0.000184999997
   7762, 0.000375000003, 0.000180000003
   7763, 0.000375000003, 0.000174999994
   7764, 0.000375000003, 0.000169999999
   7765, 0.000375000003, 0.000165000005
   7766, 0.000375000003, 0.000159999996
   7767, 0.000375000003, 0.000155000002
   7768, 0.000375000003, 0.000150000007
   7769, 0.000375000003, 0.000144999998
   7770, 0.000375000003, 0.000140000004
   7771, 0.000375000003, 0.000134999995
   7772, 0.000375000003,      0.00013
   7773, 0.000375000003, 0.000125000006
   7774, 0.000375000003, 0.000119999997
   7775, 0.000375000003, 0.000115000003
   7776, 0.000375000003, 0.000110000001
   7777, 0.000375000003, 0.000104999999
   7778, 0.000375000003, 9.99999975e-05
   7779, 0.000375000003, 9.50000031e-05
   7780, 0.000375000003, 9.00000014e-05
   7781, 0.000375000003, 8.49999997e-05
   7782, 0.000375000003, 7.9999998e-05
   7783, 0.000375000003, 7.50000036e-05
   7784, 0.000375000003, 7.00000019e-05
   7785, 0.000375000003, 6.50000002e-05
   7786, 0.000375000003, 5.99999985e-05
   7787, 0.000375000003, 5.50000004e-05
   7788, 0.000375000003, 4.99999987e-05
   7789, 0.000375000003, 4.50000007e-05
   7790, 0.000375000003, 3.9999999e-05
   7791, 0.000375000003, 3.50000009e-05
   7792, 0.000375000003, 2.99999992e-05
   7793, 0.000375000003, 2.49999994e-05
   7794, 0.000375000003, 1.99999995e-05
   7795, 0.000375000003, 1.49999996e-05
   7796, 0.000375000003, 9.99999975e-06
   7797, 0.000375000003, 4.99999987e-06
   7798, 0.000380000012, 0.000195000001
   7799, 0.000380000012, 0.000190000006
   7800, 0.000380000012, 0.000184999997
   7801, 0.000380000012, 0.000180000003
   7802, 0.000380000012, 0.000174999994
   7803, 0.000380000012, 0.000169999999
   7804, 0.000380000012, 0.000165000005
   7805, 0.000380000012, 0.000159999996
   7806, 0.000380000012, 0.000155000002
   7807, 0.000380000012, 0.000150000007
   7808, 0.000380000012, 0.000144999998
   7809, 0.000380000012, 0.000140000004
   7810, 0.000380000012, 0.000134999995
   7811, 0.000380000012,      0.00013
   7812, 0.000380000012, 0.000125000006
   7813, 0.000380000012, 0.000119999997
   7814, 0.000380000012, 0.000115000003
   7815, 0.000380000012, 0.000110000001
   7816, 0.000380000012, 0.000104999999
   7817, 0.000380000012, 9.99999975e-05
   7818, 0.000380000012, 9.50000031e-05
   7819, 0.000380000012, 9.00000014e-05
   7820, 0.000380000012, 8.49999997e-05
   7821, 0.000380000012, 7.9999998e-05
   7822, 0.000380000012, 7.50000036e-05
   7823, 0.000380000012, 7.00000019e-05
   7824, 0.000380000012, 6.50000002e-05
   7825, 0.000380000012, 5.99999985e-05
   7826, 0.000380000012, 5.50000004e-05
   7827, 0.000380000012, 4.99999987e-05
   7828, 0.000380000012, 4.50000007e-05
   7829, 0.000380000012, 3.9999999e-05
   7830, 0.000380000012, 3.50000009e-05
   7831, 0.000380000012, 2.99999992e-05
   7832, 0.000380000012, 2.49999994e-05
   7833, 0.000380000012, 1.99999995e-05
   7834, 0.000380000012, 1.49999996e-05
   7835, 0.000380000012, 9.99999975e-06
   7836, 0.000380000012, 4.99999987e-06
   7837, 0.000384999992, 0.000195000001
   7838, 0.000384999992, 0.000190000006
   7839, 0.000384999992, 0.000184999997
   7840, 0.000384999992, 0.000180000003
   7841, 0.000384999992, 0.000174999994
   7842, 0.000384999992, 0.000169999999
   7843, 0.000384999992, 0.000165000005
   7844, 0.000384999992, 0.000159999996
   7845, 0.000384999992, 0.000155000002
   7846, 0.000384999992, 0.000150000007
   7847, 0.000384999992, 0.000144999998
   7848, 0.000384999992, 0.000140000004
   7849, 0.000384999992, 0.000134999995
   7850, 0.000384999992,      0.00013
   7851, 0.000384999992, 0.000125000006
   7852, 0.000384999992, 0.000119999997
   7853, 0.000384999992, 0.000115000003
   7854, 0.000384999992, 0.000110000001
   7855, 0.000384999992, 0.000104999999
   7856, 0.000384999992, 9.99999975e-05
   7857, 0.000384999992, 9.50000031e-05
   7858, 0.000384999992, 9.00000014e-05
   7859, 0.000384999992, 8.49999997e-05
   7860, 0.000384999992, 7.9999998e-05
   7861, 0.000384999992, 7.50000036e-05
   7862, 0.000384999992, 7.00000019e-05
   7863, 0.000384999992, 6.50000002e-05
   7864, 0.000384999992, 5.99999985e-05
   7865, 0.000384999992, 5.50000004e-05
   7866, 0.000384999992, 4.99999987e-05
   7867, 0.000384999992, 4.50000007e-05
   7868, 0.000384999992, 3.9999999e-05
   7869, 0.000384999992, 3.50000009e-05
   7870, 0.000384999992, 2.99999992e-05
   7871, 0.000384999992, 2.49999994e-05
   7872, 0.000384999992, 1.99999995e-05
   7873, 0.000384999992, 1.49999996e-05
   7874, 0.000384999992, 9.99999975e-06
   7875, 0.000384999992, 4.99999987e-06
   7876, 0.000390000001, 0.000195000001
   7877, 0.000390000001, 0.000190000006
   7878, 0.000390000001, 0.000184999997
   7879, 0.000390000001, 0.000180000003
   7880, 0.000390000001, 0.000174999994
   7881, 0.000390000001, 0.000169999999
   7882, 0.000390000001, 0.000165000005
   7883, 0.000390000001, 0.000159999996
   7884, 0.000390000001, 0.000155000002
   7885, 0.000390000001, 0.000150000007
   7886, 0.000390000001, 0.000144999998
   7887, 0.000390000001, 0.000140000004
   7888, 0.000390000001, 0.000134999995
   7889, 0.000390000001,      0.00013
   7890, 0.000390000001, 0.000125000006
   7891, 0.000390000001, 0.000119999997
   7892, 0.000390000001, 0.000115000003
   7893, 0.000390000001, 0.000110000001
   7894, 0.000390000001, 0.000104999999
   7895, 0.000390000001, 9.99999975e-05
   7896, 0.000390000001, 9.50000031e-05
   7897, 0.000390000001, 9.00000014e-05
   7898, 0.000390000001, 8.49999997e-05
   7899, 0.000390000001, 7.9999998e-05
   7900, 0.000390000001, 7.50000036e-05
   7901, 0.000390000001, 7.00000019e-05
   7902, 0.000390000001, 6.50000002e-05
   7903, 0.000390000001, 5.99999985e-05
   7904, 0.000390000001, 5.50000004e-05
   7905, 0.000390000001, 4.99999987e-05
   7906, 0.000390000001, 4.50000007e-05
   7907, 0.000390000001, 3.9999999e-05
   7908, 0.000390000001, 3.50000009e-05
   7909, 0.000390000001, 2.99999992e-05
   7910, 0.000390000001, 2.49999994e-05
   7911, 0.000390000001, 1.99999995e-05
   7912, 0.000390000001, 1.49999996e-05
   7913, 0.000390000001, 9.99999975e-06
   7914, 0.000390000001, 4.99999987e-06
   7915, 0.00039500001, 0.000195000001
   7916, 0.00039500001, 0.000190000006
   7917, 0.00039500001, 0.000184999997
   7918, 0.00039500001, 0.000180000003
   7919, 0.00039500001, 0.000174999994
   7920, 0.00039500001, 0.000169999999
   7921, 0.00039500001, 0.000165000005
   7922, 0.00039500001, 0.000159999996
   7923, 0.00039500001, 0.000155000002
   7924, 0.00039500001, 0.000150000007
   7925, 0.00039500001, 0.000144999998
   7926, 0.00039500001, 0.000140000004
   7927, 0.00039500001, 0.000134999995
   7928, 0.00039500001,      0.00013
   7929, 0.00039500001, 0.000125000006
   7930, 0.00039500001, 0.000119999997
   7931, 0.00039500001, 0.000115000003
   7932, 0.00039500001, 0.000110000001
   7933, 0.00039500001, 0.000104999999
   7934, 0.00039500001, 9.99999975e-05
   7935, 0.00039500001, 9.50000031e-05
   7936, 0.00039500001, 9.00000014e-05
   7937, 0.00039500001, 8.49999997e-05
   7938, 0.00039500001, 7.9999998e-05
   7939, 0.00039500001, 7.50000036e-05
   7940, 0.00039500001, 7.00000019e-05
   7941, 0.00039500001, 6.50000002e-05
   7942, 0.00039500001, 5.99999985e-05
   7943, 0.00039500001, 5.50000004e-05
   7944, 0.00039500001, 4.99999987e-05
   7945, 0.00039500001, 4.50000007e-05
   7946, 0.00039500001, 3.9999999e-05
   7947, 0.00039500001, 3.50000009e-05
   7948, 0.00039500001, 2.99999992e-05
   7949, 0.00039500001, 2.49999994e-05
   7950, 0.00039500001, 1.99999995e-05
   7951, 0.00039500001, 1.49999996e-05
   7952, 0.00039500001, 9.99999975e-06
   7953, 0.00039500001, 4.99999987e-06
   7954, 0.00039999999, 0.000195000001
   7955, 0.00039999999, 0.000190000006
   7956, 0.00039999999, 0.000184999997
   7957, 0.00039999999, 0.000180000003
   7958, 0.00039999999, 0.000174999994
   7959, 0.00039999999, 0.000169999999
   7960, 0.00039999999, 0.000165000005
   7961, 0.00039999999, 0.000159999996
   7962, 0.00039999999, 0.000155000002
   7963, 0.00039999999, 0.000150000007
   7964, 0.00039999999, 0.000144999998
   7965, 0.00039999999, 0.000140000004
   7966, 0.00039999999, 0.000134999995
   7967, 0.00039999999,      0.00013
   7968, 0.00039999999, 0.000125000006
   7969, 0.00039999999, 0.000119999997
   7970, 0.00039999999, 0.000115000003
   7971, 0.00039999999, 0.000110000001
   7972, 0.00039999999, 0.000104999999
   7973, 0.00039999999, 9.99999975e-05
   7974, 0.00039999999, 9.50000031e-05
   7975, 0.00039999999, 9.00000014e-05
   7976, 0.00039999999, 8.49999997e-05
   7977, 0.00039999999, 7.9999998e-05
   7978, 0.00039999999, 7.50000036e-05
   7979, 0.00039999999, 7.00000019e-05
   7980, 0.00039999999, 6.50000002e-05
   7981, 0.00039999999, 5.99999985e-05
   7982, 0.00039999999, 5.50000004e-05
   7983, 0.00039999999, 4.99999987e-05
   7984, 0.00039999999, 4.50000007e-05
   7985, 0.00039999999, 3.9999999e-05
   7986, 0.00039999999, 3.50000009e-05
   7987, 0.00039999999, 2.99999992e-05
   7988, 0.00039999999, 2.49999994e-05
   7989, 0.00039999999, 1.99999995e-05
   7990, 0.00039999999, 1.49999996e-05
   7991, 0.00039999999, 9.99999975e-06
   7992, 0.00039999999, 4.99999987e-06
   7993, 0.000404999999, 0.000195000001
   7994, 0.000404999999, 0.000190000006
   7995, 0.000404999999, 0.000184999997
   7996, 0.000404999999, 0.000180000003
   7997, 0.000404999999, 0.000174999994
   7998, 0.000404999999, 0.000169999999
   7999, 0.000404999999, 0.000165000005
   8000, 0.000404999999, 0.000159999996
   8001, 0.000404999999, 0.000155000002
   8002, 0.000404999999, 0.000150000007
   8003, 0.000404999999, 0.000144999998
   8004, 0.000404999999, 0.000140000004
   8005, 0.000404999999, 0.000134999995
   8006, 0.000404999999,      0.00013
   8007, 0.000404999999, 0.000125000006
   8008, 0.000404999999, 0.000119999997
   8009, 0.000404999999, 0.000115000003
   8010, 0.000404999999, 0.000110000001
   8011, 0.000404999999, 0.000104999999
   8012, 0.000404999999, 9.99999975e-05
   8013, 0.000404999999, 9.50000031e-05
   8014, 0.000404999999, 9.00000014e-05
   8015, 0.000404999999, 8.49999997e-05
   8016, 0.000404999999, 7.9999998e-05
   8017, 0.000404999999, 7.50000036e-05
   8018, 0.000404999999, 7.00000019e-05
   8019, 0.000404999999, 6.50000002e-05
   8020, 0.000404999999, 5.99999985e-05
   8021, 0.000404999999, 5.50000004e-05
   8022, 0.000404999999, 4.99999987e-05
   8023, 0.000404999999, 4.50000007e-05
   8024, 0.000404999999, 3.9999999e-05
   8025, 0.000404999999, 3.50000009e-05
   8026, 0.000404999999, 2.99999992e-05
   8027, 0.000404999999, 2.49999994e-05
   8028, 0.000404999999, 1.99999995e-05
   8029, 0.000404999999, 1.49999996e-05
   8030, 0.000404999999, 9.99999975e-06
   8031, 0.000404999999, 4.99999987e-06
   8032, 0.000410000008, 0.000195000001
   8033, 0.000410000008, 0.000190000006
   8034, 0.000410000008, 0.000184999997
   8035, 0.000410000008, 0.000180000003
   8036, 0.000410000008, 0.000174999994
   8037, 0.000410000008, 0.000169999999
   8038, 0.000410000008, 0.000165000005
   8039, 0.000410000008, 0.000159999996
   8040, 0.000410000008, 0.000155000002
   8041, 0.000410000008, 0.000150000007
   8042, 0.000410000008, 0.000144999998
   8043, 0.000410000008, 0.000140000004
   8044, 0.000410000008, 0.000134999995
   8045, 0.000410000008,      0.00013
   8046, 0.000410000008, 0.000125000006
   8047, 0.000410000008, 0.000119999997
   8048, 0.000410000008, 0.000115000003
   8049, 0.000410000008, 0.000110000001
   8050, 0.000410000008, 0.000104999999
   8051, 0.000410000008, 9.99999975e-05
   8052, 0.000410000008, 9.50000031e-05
   8053, 0.000410000008, 9.00000014e-05
   8054, 0.000410000008, 8.49999997e-05
   8055, 0.000410000008, 7.9999998e-05
   8056, 0.000410000008, 7.50000036e-05
   8057, 0.000410000008, 7.00000019e-05
   8058, 0.000410000008, 6.50000002e-05
   8059, 0.000410000008, 5.99999985e-05
   8060, 0.000410000008, 5.50000004e-05
   8061, 0.000410000008, 4.99999987e-05
   8062, 0.000410000008, 4.50000007e-05
   8063, 0.000410000008, 3.9999999e-05
   8064, 0.000410000008, 3.50000009e-05
   8065, 0.000410000008, 2.99999992e-05
   8066, 0.000410000008, 2.49999994e-05
   8067, 0.000410000008, 1.99999995e-05
   8068, 0.000410000008, 1.49999996e-05
   8069, 0.000410000008, 9.99999975e-06
   8070, 0.000410000008, 4.99999987e-06
   8071, 0.000414999988, 0.000195000001
   8072, 0.000414999988, 0.000190000006
   8073, 0.000414999988, 0.000184999997
   8074, 0.000414999988, 0.000180000003
   8075, 0.000414999988, 0.000174999994
   8076, 0.000414999988, 0.000169999999
   8077, 0.000414999988, 0.000165000005
   8078, 0.000414999988, 0.000159999996
   8079, 0.000414999988, 0.000155000002
   8080, 0.000414999988, 0.000150000007
   8081, 0.000414999988, 0.000144999998
   8082, 0.000414999988, 0.000140000004
   8083, 0.000414999988, 0.000134999995
   8084, 0.000414999988,      0.00013
   8085, 0.000414999988, 0.000125000006
   8086, 0.000414999988, 0.000119999997
   8087, 0.000414999988, 0.000115000003
   8088, 0.000414999988, 0.000110000001
   8089, 0.000414999988, 0.000104999999
   8090, 0.000414999988, 9.99999975e-05
   8091, 0.000414999988, 9.50000031e-05
   8092, 0.000414999988, 9.00000014e-05
   8093, 0.000414999988, 8.49999997e-05
   8094, 0.000414999988, 7.9999998e-05
   8095, 0.000414999988, 7.50000036e-05
   8096, 0.000414999988, 7.00000019e-05
   8097, 0.000414999988, 6.50000002e-05
   8098, 0.000414999988, 5.99999985e-05
   8099, 0.000414999988, 5.50000004e-05
   8100, 0.000414999988, 4.99999987e-05
   8101, 0.000414999988, 4.50000007e-05
   8102, 0.000414999988, 3.9999999e-05
   8103, 0.000414999988, 3.50000009e-05
   8104, 0.000414999988, 2.99999992e-05
   8105, 0.000414999988, 2.49999994e-05
   8106, 0.000414999988, 1.99999995e-05
   8107, 0.000414999988, 1.49999996e-05
   8108, 0.000414999988, 9.99999975e-06
   8109, 0.000414999988, 4.99999987e-06
   8110, 0.000419999997, 0.000195000001
   8111, 0.000419999997, 0.000190000006
   8112, 0.000419999997, 0.000184999997
   8113, 0.000419999997, 0.000180000003
   8114, 0.000419999997, 0.000174999994
   8115, 0.000419999997, 0.000169999999
   8116, 0.000419999997, 0.000165000005
   8117, 0.000419999997, 0.000159999996
   8118, 0.000419999997, 0.000155000002
   8119, 0.000419999997, 0.000150000007
   8120, 0.000419999997, 0.000144999998
   8121, 0.000419999997, 0.000140000004
   8122, 0.000419999997, 0.000134999995
   8123, 0.000419999997,      0.00013
   8124, 0.000419999997, 0.000125000006
   8125, 0.000419999997, 0.000119999997
   8126, 0.000419999997, 0.000115000003
   8127, 0.000419999997, 0.000110000001
   8128, 0.000419999997, 0.000104999999
   8129, 0.000419999997, 9.99999975e-05
   8130, 0.000419999997, 9.50000031e-05
   8131, 0.000419999997, 9.00000014e-05
   8132, 0.000419999997, 8.49999997e-05
   8133, 0.000419999997, 7.9999998e-05
   8134, 0.000419999997, 7.50000036e-05
   8135, 0.000419999997, 7.00000019e-05
   8136, 0.000419999997, 6.50000002e-05
   8137, 0.000419999997, 5.99999985e-05
   8138, 0.000419999997, 5.50000004e-05
   8139, 0.000419999997, 4.99999987e-05
   8140, 0.000419999997, 4.50000007e-05
   8141, 0.000419999997, 3.9999999e-05
   8142, 0.000419999997, 3.50000009e-05
   8143, 0.000419999997, 2.99999992e-05
   8144, 0.000419999997, 2.49999994e-05
   8145, 0.000419999997, 1.99999995e-05
   8146, 0.000419999997, 1.49999996e-05
   8147, 0.000419999997, 9.99999975e-06
   8148, 0.000419999997, 4.99999987e-06
   8149, 0.000425000006, 0.000195000001
   8150, 0.000425000006, 0.000190000006
   8151, 0.000425000006, 0.000184999997
   8152, 0.000425000006, 0.000180000003
   8153, 0.000425000006, 0.000174999994
   8154, 0.000425000006, 0.000169999999
   8155, 0.000425000006, 0.000165000005
   8156, 0.000425000006, 0.000159999996
   8157, 0.000425000006, 0.000155000002
   8158, 0.000425000006, 0.000150000007
   8159, 0.000425000006, 0.000144999998
   8160, 0.000425000006, 0.000140000004
   8161, 0.000425000006, 0.000134999995
   8162, 0.000425000006,      0.00013
   8163, 0.000425000006, 0.000125000006
   8164, 0.000425000006, 0.000119999997
   8165, 0.000425000006, 0.000115000003
   8166, 0.000425000006, 0.000110000001
   8167, 0.000425000006, 0.000104999999
   8168, 0.000425000006, 9.99999975e-05
   8169, 0.000425000006, 9.50000031e-05
   8170, 0.000425000006, 9.00000014e-05
   8171, 0.000425000006, 8.49999997e-05
   8172, 0.000425000006, 7.9999998e-05
   8173, 0.000425000006, 7.50000036e-05
   8174, 0.000425000006, 7.00000019e-05
   8175, 0.000425000006, 6.50000002e-05
   8176, 0.000425000006, 5.99999985e-05
   8177, 0.000425000006, 5.50000004e-05
   8178, 0.000425000006, 4.99999987e-05
   8179, 0.000425000006, 4.50000007e-05
   8180, 0.000425000006, 3.9999999e-05
   8181, 0.000425000006, 3.50000009e-05
   8182, 0.000425000006, 2.99999992e-05
   8183, 0.000425000006, 2.49999994e-05
   8184, 0.000425000006, 1.99999995e-05
   8185, 0.000425000006, 1.49999996e-05
   8186, 0.000425000006, 9.99999975e-06
   8187, 0.000425000006, 4.99999987e-06
   8188, 0.000429999985, 0.000195000001
   8189, 0.000429999985, 0.000190000006
   8190, 0.000429999985, 0.000184999997
   8191, 0.000429999985, 0.000180000003
   8192, 0.000429999985, 0.000174999994
   8193, 0.000429999985, 0.000169999999
   8194, 0.000429999985, 0.000165000005
   8195, 0.000429999985, 0.000159999996
   8196, 0.000429999985, 0.000155000002
   8197, 0.000429999985, 0.000150000007
   8198, 0.000429999985, 0.000144999998
   8199, 0.000429999985, 0.000140000004
   8200, 0.000429999985, 0.000134999995
   8201, 0.000429999985,      0.00013
   8202, 0.000429999985, 0.000125000006
   8203, 0.000429999985, 0.000119999997
   8204, 0.000429999985, 0.000115000003
   8205, 0.000429999985, 0.000110000001
   8206, 0.000429999985, 0.000104999999
   8207, 0.000429999985, 9.99999975e-05
   8208, 0.000429999985, 9.50000031e-05
   8209, 0.000429999985, 9.00000014e-05
   8210, 0.000429999985, 8.49999997e-05
   8211, 0.000429999985, 7.9999998e-05
   8212, 0.000429999985, 7.50000036e-05
   8213, 0.000429999985, 7.00000019e-05
   8214, 0.000429999985, 6.50000002e-05
   8215, 0.000429999985, 5.99999985e-05
   8216, 0.000429999985, 5.50000004e-05
   8217, 0.000429999985, 4.99999987e-05
   8218, 0.000429999985, 4.50000007e-05
   8219, 0.000429999985, 3.9999999e-05
   8220, 0.000429999985, 3.50000009e-05
   8221, 0.000429999985, 2.99999992e-05
   8222, 0.000429999985, 2.49999994e-05
   8223, 0.000429999985, 1.99999995e-05
   8224, 0.000429999985, 1.49999996e-05
   8225, 0.000429999985, 9.99999975e-06
   8226, 0.000429999985, 4.99999987e-06
   8227, 0.000434999994, 0.000195000001
   8228, 0.000434999994, 0.000190000006
   8229, 0.000434999994, 0.000184999997
   8230, 0.000434999994, 0.000180000003
   8231, 0.000434999994, 0.000174999994
   8232, 0.000434999994, 0.000169999999
   8233, 0.000434999994, 0.000165000005
   8234, 0.000434999994, 0.000159999996
   8235, 0.000434999994, 0.000155000002
   8236, 0.000434999994, 0.000150000007
   8237, 0.000434999994, 0.000144999998
   8238, 0.000434999994, 0.000140000004
   8239, 0.000434999994, 0.000134999995
   8240, 0.000434999994,      0.00013
   8241, 0.000434999994, 0.000125000006
   8242, 0.000434999994, 0.000119999997
   8243, 0.000434999994, 0.000115000003
   8244, 0.000434999994, 0.000110000001
   8245, 0.000434999994, 0.000104999999
   8246, 0.000434999994, 9.99999975e-05
   8247, 0.000434999994, 9.50000031e-05
   8248, 0.000434999994, 9.00000014e-05
   8249, 0.000434999994, 8.49999997e-05
   8250, 0.000434999994, 7.9999998e-05
   8251, 0.000434999994, 7.50000036e-05
   8252, 0.000434999994, 7.00000019e-05
   8253, 0.000434999994, 6.50000002e-05
   8254, 0.000434999994, 5.99999985e-05
   8255, 0.000434999994, 5.50000004e-05
   8256, 0.000434999994, 4.99999987e-05
   8257, 0.000434999994, 4.50000007e-05
   8258, 0.000434999994, 3.9999999e-05
   8259, 0.000434999994, 3.50000009e-05
   8260, 0.000434999994, 2.99999992e-05
   8261, 0.000434999994, 2.49999994e-05
   8262, 0.000434999994, 1.99999995e-05
   8263, 0.000434999994, 1.49999996e-05
   8264, 0.000434999994, 9.99999975e-06
   8265, 0.000434999994, 4.99999987e-06
   8266, 0.000440000003, 0.000195000001
   8267, 0.000440000003, 0.000190000006
   8268, 0.000440000003, 0.000184999997
   8269, 0.000440000003, 0.000180000003
   8270, 0.000440000003, 0.000174999994
   8271, 0.000440000003, 0.000169999999
   8272, 0.000440000003, 0.000165000005
   8273, 0.000440000003, 0.000159999996
   8274, 0.000440000003, 0.000155000002
   8275, 0.000440000003, 0.000150000007
   8276, 0.000440000003, 0.000144999998
   8277, 0.000440000003, 0.000140000004
   8278, 0.000440000003, 0.000134999995
   8279, 0.000440000003,      0.00013
   8280, 0.000440000003, 0.000125000006
   8281, 0.000440000003, 0.000119999997
   8282, 0.000440000003, 0.000115000003
   8283, 0.000440000003, 0.000110000001
   8284, 0.000440000003, 0.000104999999
   8285, 0.000440000003, 9.99999975e-05
   8286, 0.000440000003, 9.50000031e-05
   8287, 0.000440000003, 9.00000014e-05
   8288, 0.000440000003, 8.49999997e-05
   8289, 0.000440000003, 7.9999998e-05
   8290, 0.000440000003, 7.50000036e-05
   8291, 0.000440000003, 7.00000019e-05
   8292, 0.000440000003, 6.50000002e-05
   8293, 0.000440000003, 5.99999985e-05
   8294, 0.000440000003, 5.50000004e-05
   8295, 0.000440000003, 4.99999987e-05
   8296, 0.000440000003, 4.50000007e-05
   8297, 0.000440000003, 3.9999999e-05
   8298, 0.000440000003, 3.50000009e-05
   8299, 0.000440000003, 2.99999992e-05
   8300, 0.000440000003, 2.49999994e-05
   8301, 0.000440000003, 1.99999995e-05
   8302, 0.000440000003, 1.49999996e-05
   8303, 0.000440000003, 9.99999975e-06
   8304, 0.000440000003, 4.99999987e-06
   8305, 0.000445000012, 0.000195000001
   8306, 0.000445000012, 0.000190000006
   8307, 0.000445000012, 0.000184999997
   8308, 0.000445000012, 0.000180000003
   8309, 0.000445000012, 0.000174999994
   8310, 0.000445000012, 0.000169999999
   8311, 0.000445000012, 0.000165000005
   8312, 0.000445000012, 0.000159999996
   8313, 0.000445000012, 0.000155000002
   8314, 0.000445000012, 0.000150000007
   8315, 0.000445000012, 0.000144999998
   8316, 0.000445000012, 0.000140000004
   8317, 0.000445000012, 0.000134999995
   8318, 0.000445000012,      0.00013
   8319, 0.000445000012, 0.000125000006
   8320, 0.000445000012, 0.000119999997
   8321, 0.000445000012, 0.000115000003
   8322, 0.000445000012, 0.000110000001
   8323, 0.000445000012, 0.000104999999
   8324, 0.000445000012, 9.99999975e-05
   8325, 0.000445000012, 9.50000031e-05
   8326, 0.000445000012, 9.00000014e-05
   8327, 0.000445000012, 8.49999997e-05
   8328, 0.000445000012, 7.9999998e-05
   8329, 0.000445000012, 7.50000036e-05
   8330, 0.000445000012, 7.00000019e-05
   8331, 0.000445000012, 6.50000002e-05
   8332, 0.000445000012, 5.99999985e-05
   8333, 0.000445000012, 5.50000004e-05
   8334, 0.000445000012, 4.99999987e-05
   8335, 0.000445000012, 4.50000007e-05
   8336, 0.000445000012, 3.9999999e-05
   8337, 0.000445000012, 3.50000009e-05
   8338, 0.000445000012, 2.99999992e-05
   8339, 0.000445000012, 2.49999994e-05
   8340, 0.000445000012, 1.99999995e-05
   8341, 0.000445000012, 1.49999996e-05
   8342, 0.000445000012, 9.99999975e-06
   8343, 0.000445000012, 4.99999987e-06
   8344, 0.000449999992, 0.000195000001
   8345, 0.000449999992, 0.000190000006
   8346, 0.000449999992, 0.000184999997
   8347, 0.000449999992, 0.000180000003
   8348, 0.000449999992, 0.000174999994
   8349, 0.000449999992, 0.000169999999
   8350, 0.000449999992, 0.000165000005
   8351, 0.000449999992, 0.000159999996
   8352, 0.000449999992, 0.000155000002
   8353, 0.000449999992, 0.000150000007
   8354, 0.000449999992, 0.000144999998
   8355, 0.000449999992, 0.000140000004
   8356, 0.000449999992, 0.000134999995
   8357, 0.000449999992,      0.00013
   8358, 0.000449999992, 0.000125000006
   8359, 0.000449999992, 0.000119999997
   8360, 0.000449999992, 0.000115000003
   8361, 0.000449999992, 0.000110000001
   8362, 0.000449999992, 0.000104999999
   8363, 0.000449999992, 9.99999975e-05
   8364, 0.000449999992, 9.50000031e-05
   8365, 0.000449999992, 9.00000014e-05
   8366, 0.000449999992, 8.49999997e-05
   8367, 0.000449999992, 7.9999998e-05
   8368, 0.000449999992, 7.50000036e-05
   8369, 0.000449999992, 7.00000019e-05
   8370, 0.000449999992, 6.50000002e-05
   8371, 0.000449999992, 5.99999985e-05
   8372, 0.000449999992, 5.50000004e-05
   8373, 0.000449999992, 4.99999987e-05
   8374, 0.000449999992, 4.50000007e-05
   8375, 0.000449999992, 3.9999999e-05
   8376, 0.000449999992, 3.50000009e-05
   8377, 0.000449999992, 2.99999992e-05
   8378, 0.000449999992, 2.49999994e-05
   8379, 0.000449999992, 1.99999995e-05
   8380, 0.000449999992, 1.49999996e-05
   8381, 0.000449999992, 9.99999975e-06
   8382, 0.000449999992, 4.99999987e-06
   8383, 0.000455000001, 0.000195000001
   8384, 0.000455000001, 0.000190000006
   8385, 0.000455000001, 0.000184999997
   8386, 0.000455000001, 0.000180000003
   8387, 0.000455000001, 0.000174999994
   8388, 0.000455000001, 0.000169999999
   8389, 0.000455000001, 0.000165000005
   8390, 0.000455000001, 0.000159999996
   8391, 0.000455000001, 0.000155000002
   8392, 0.000455000001, 0.000150000007
   8393, 0.000455000001, 0.000144999998
   8394, 0.000455000001, 0.000140000004
   8395, 0.000455000001, 0.000134999995
   8396, 0.000455000001,      0.00013
   8397, 0.000455000001, 0.000125000006
   8398, 0.000455000001, 0.000119999997
   8399, 0.000455000001, 0.000115000003
   8400, 0.000455000001, 0.000110000001
   8401, 0.000455000001, 0.000104999999
   8402, 0.000455000001, 9.99999975e-05
   8403, 0.000455000001, 9.50000031e-05
   8404, 0.000455000001, 9.00000014e-05
   8405, 0.000455000001, 8.49999997e-05
   8406, 0.000455000001, 7.9999998e-05
   8407, 0.000455000001, 7.50000036e-05
   8408, 0.000455000001, 7.00000019e-05
   8409, 0.000455000001, 6.50000002e-05
   8410, 0.000455000001, 5.99999985e-05
   8411, 0.000455000001, 5.50000004e-05
   8412, 0.000455000001, 4.99999987e-05
   8413, 0.000455000001, 4.50000007e-05
   8414, 0.000455000001, 3.9999999e-05
   8415, 0.000455000001, 3.50000009e-05
   8416, 0.000455000001, 2.99999992e-05
   8417, 0.000455000001, 2.49999994e-05
   8418, 0.000455000001, 1.99999995e-05
   8419, 0.000455000001, 1.49999996e-05
   8420, 0.000455000001, 9.99999975e-06
   8421, 0.000455000001, 4.99999987e-06
   8422, 0.00046000001, 0.000195000001
   8423, 0.00046000001, 0.000190000006
   8424, 0.00046000001, 0.000184999997
   8425, 0.00046000001, 0.000180000003
   8426, 0.00046000001, 0.000174999994
   8427, 0.00046000001, 0.000169999999
   8428, 0.00046000001, 0.000165000005
   8429, 0.00046000001, 0.000159999996
   8430, 0.00046000001, 0.000155000002
   8431, 0.00046000001, 0.000150000007
   8432, 0.00046000001, 0.000144999998
   8433, 0.00046000001, 0.000140000004
   8434, 0.00046000001, 0.000134999995
   8435, 0.00046000001,      0.00013
   8436, 0.00046000001, 0.000125000006
   8437, 0.00046000001, 0.000119999997
   8438, 0.00046000001, 0.000115000003
   8439, 0.00046000001, 0.000110000001
   8440, 0.00046000001, 0.000104999999
   8441, 0.00046000001, 9.99999975e-05
   8442, 0.00046000001, 9.50000031e-05
   8443, 0.00046000001, 9.00000014e-05
   8444, 0.00046000001, 8.49999997e-05
   8445, 0.00046000001, 7.9999998e-05
   8446, 0.00046000001, 7.50000036e-05
   8447, 0.00046000001, 7.00000019e-05
   8448, 0.00046000001, 6.50000002e-05
   8449, 0.00046000001, 5.99999985e-05
   8450, 0.00046000001, 5.50000004e-05
   8451, 0.00046000001, 4.99999987e-05
   8452, 0.00046000001, 4.50000007e-05
   8453, 0.00046000001, 3.9999999e-05
   8454, 0.00046000001, 3.50000009e-05
   8455, 0.00046000001, 2.99999992e-05
   8456, 0.00046000001, 2.49999994e-05
   8457, 0.00046000001, 1.99999995e-05
   8458, 0.00046000001, 1.49999996e-05
   8459, 0.00046000001, 9.99999975e-06
   8460, 0.00046000001, 4.99999987e-06
   8461, 0.00046499999, 0.000195000001
   8462, 0.00046499999, 0.000190000006
   8463, 0.00046499999, 0.000184999997
   8464, 0.00046499999, 0.000180000003
   8465, 0.00046499999, 0.000174999994
   8466, 0.00046499999, 0.000169999999
   8467, 0.00046499999, 0.000165000005
   8468, 0.00046499999, 0.000159999996
   8469, 0.00046499999, 0.000155000002
   8470, 0.00046499999, 0.000150000007
   8471, 0.00046499999, 0.000144999998
   8472, 0.00046499999, 0.000140000004
   8473, 0.00046499999, 0.000134999995
   8474, 0.00046499999,      0.00013
   8475, 0.00046499999, 0.000125000006
   8476, 0.00046499999, 0.000119999997
   8477, 0.00046499999, 0.000115000003
   8478, 0.00046499999, 0.000110000001
   8479, 0.00046499999, 0.000104999999
   8480, 0.00046499999, 9.99999975e-05
   8481, 0.00046499999, 9.50000031e-05
   8482, 0.00046499999, 9.00000014e-05
   8483, 0.00046499999, 8.49999997e-05
   8484, 0.00046499999, 7.9999998e-05
   8485, 0.00046499999, 7.50000036e-05
   8486, 0.00046499999, 7.00000019e-05
   8487, 0.00046499999, 6.50000002e-05
   8488, 0.00046499999, 5.99999985e-05
   8489, 0.00046499999, 5.50000004e-05
   8490, 0.00046499999, 4.99999987e-05
   8491, 0.00046499999, 4.50000007e-05
   8492, 0.00046499999, 3.9999999e-05
   8493, 0.00046499999, 3.50000009e-05
   8494, 0.00046499999, 2.99999992e-05
   8495, 0.00046499999, 2.49999994e-05
   8496, 0.00046499999, 1.99999995e-05
   8497, 0.00046499999, 1.49999996e-05
   8498, 0.00046499999, 9.99999975e-06
   8499, 0.00046499999, 4.99999987e-06
   8500, 0.000469999999, 0.000195000001
   8501, 0.000469999999, 0.000190000006
   8502, 0.000469999999, 0.000184999997
   8503, 0.000469999999, 0.000180000003
   8504, 0.000469999999, 0.000174999994
   8505, 0.000469999999, 0.000169999999
   8506, 0.000469999999, 0.000165000005
   8507, 0.000469999999, 0.000159999996
   8508, 0.000469999999, 0.000155000002
   8509, 0.000469999999, 0.000150000007
   8510, 0.000469999999, 0.000144999998
   8511, 0.000469999999, 0.000140000004
   8512, 0.000469999999, 0.000134999995
   8513, 0.000469999999,      0.00013
   8514, 0.000469999999, 0.000125000006
   8515, 0.000469999999, 0.000119999997
   8516, 0.000469999999, 0.000115000003
   8517, 0.000469999999, 0.000110000001
   8518, 0.000469999999, 0.000104999999
   8519, 0.000469999999, 9.99999975e-05
   8520, 0.000469999999, 9.50000031e-05
   8521, 0.000469999999, 9.00000014e-05
   8522, 0.000469999999, 8.49999997e-05
   8523, 0.000469999999, 7.9999998e-05
   8524, 0.000469999999, 7.50000036e-05
   8525, 0.000469999999, 7.00000019e-05
   8526, 0.000469999999, 6.50000002e-05
   8527, 0.000469999999, 5.99999985e-05
   8528, 0.000469999999, 5.50000004e-05
   8529, 0.000469999999, 4.99999987e-05
   8530, 0.000469999999, 4.50000007e-05
   8531, 0.000469999999, 3.9999999e-05
   8532, 0.000469999999, 3.50000009e-05
   8533, 0.000469999999, 2.99999992e-05
   8534, 0.000469999999, 2.49999994e-05
   8535, 0.000469999999, 1.99999995e-05
   8536, 0.000469999999, 1.49999996e-05
   8537, 0.000469999999, 9.99999975e-06
   8538, 0.000469999999, 4.99999987e-06
   8539, 0.000475000008, 0.000195000001
   8540, 0.000475000008, 0.000190000006
   8541, 0.000475000008, 0.000184999997
   8542, 0.000475000008, 0.000180000003
   8543, 0.000475000008, 0.000174999994
   8544, 0.000475000008, 0.000169999999
   8545, 0.000475000008, 0.000165000005
   8546, 0.000475000008, 0.000159999996
   8547, 0.000475000008, 0.000155000002
   8548, 0.000475000008, 0.000150000007
   8549, 0.000475000008, 0.000144999998
   8550, 0.000475000008, 0.000140000004
   8551, 0.000475000008, 0.000134999995
   8552, 0.000475000008,      0.00013
   8553, 0.000475000008, 0.000125000006
   8554, 0.000475000008, 0.000119999997
   8555, 0.000475000008, 0.000115000003
   8556, 0.000475000008, 0.000110000001
   8557, 0.000475000008, 0.000104999999
   8558, 0.000475000008, 9.99999975e-05
   8559, 0.000475000008, 9.50000031e-05
   8560, 0.000475000008, 9.00000014e-05
   8561, 0.000475000008, 8.49999997e-05
   8562, 0.000475000008, 7.9999998e-05
   8563, 0.000475000008, 7.50000036e-05
   8564, 0.000475000008, 7.00000019e-05
   8565, 0.000475000008, 6.50000002e-05
   8566, 0.000475000008, 5.99999985e-05
   8567, 0.000475000008, 5.50000004e-05
   8568, 0.000475000008, 4.99999987e-05
   8569, 0.000475000008, 4.50000007e-05
   8570, 0.000475000008, 3.9999999e-05
   8571, 0.000475000008, 3.50000009e-05
   8572, 0.000475000008, 2.99999992e-05
   8573, 0.000475000008, 2.49999994e-05
   8574, 0.000475000008, 1.99999995e-05
   8575, 0.000475000008, 1.49999996e-05
   8576, 0.000475000008, 9.99999975e-06
   8577, 0.000475000008, 4.99999987e-06
   8578, 0.000479999988, 0.000195000001
   8579, 0.000479999988, 0.000190000006
   8580, 0.000479999988, 0.000184999997
   8581, 0.000479999988, 0.000180000003
   8582, 0.000479999988, 0.000174999994
   8583, 0.000479999988, 0.000169999999
   8584, 0.000479999988, 0.000165000005
   8585, 0.000479999988, 0.000159999996
   8586, 0.000479999988, 0.000155000002
   8587, 0.000479999988, 0.000150000007
   8588, 0.000479999988, 0.000144999998
   8589, 0.000479999988, 0.000140000004
   8590, 0.000479999988, 0.000134999995
   8591, 0.000479999988,      0.00013
   8592, 0.000479999988, 0.000125000006
   8593, 0.000479999988, 0.000119999997
   8594, 0.000479999988, 0.000115000003
   8595, 0.000479999988, 0.000110000001
   8596, 0.000479999988, 0.000104999999
   8597, 0.000479999988, 9.99999975e-05
   8598, 0.000479999988, 9.50000031e-05
   8599, 0.000479999988, 9.00000014e-05
   8600, 0.000479999988, 8.49999997e-05
   8601, 0.000479999988, 7.9999998e-05
   8602, 0.000479999988, 7.50000036e-05
   8603, 0.000479999988, 7.00000019e-05
   8604, 0.000479999988, 6.50000002e-05
   8605, 0.000479999988, 5.99999985e-05
   8606, 0.000479999988, 5.50000004e-05
   8607, 0.000479999988, 4.99999987e-05
   8608, 0.000479999988, 4.50000007e-05
   8609, 0.000479999988, 3.9999999e-05
   8610, 0.000479999988, 3.50000009e-05
   8611, 0.000479999988, 2.99999992e-05
   8612, 0.000479999988, 2.49999994e-05
   8613, 0.000479999988, 1.99999995e-05
   8614, 0.000479999988, 1.49999996e-05
   8615, 0.000479999988, 9.99999975e-06
   8616, 0.000479999988, 4.99999987e-06
   8617, 0.000484999997, 0.000195000001
   8618, 0.000484999997, 0.000190000006
   8619, 0.000484999997, 0.000184999997
   8620, 0.000484999997, 0.000180000003
   8621, 0.000484999997, 0.000174999994
   8622, 0.000484999997, 0.000169999999
   8623, 0.000484999997, 0.000165000005
   8624, 0.000484999997, 0.000159999996
   8625, 0.000484999997, 0.000155000002
   8626, 0.000484999997, 0.000150000007
   8627, 0.000484999997, 0.000144999998
   8628, 0.000484999997, 0.000140000004
   8629, 0.000484999997, 0.000134999995
   8630, 0.000484999997,      0.00013
   8631, 0.000484999997, 0.000125000006
   8632, 0.000484999997, 0.000119999997
   8633, 0.000484999997, 0.000115000003
   8634, 0.000484999997, 0.000110000001
   8635, 0.000484999997, 0.000104999999
   8636, 0.000484999997, 9.99999975e-05
   8637, 0.000484999997, 9.50000031e-05
   8638, 0.000484999997, 9.00000014e-05
   8639, 0.000484999997, 8.49999997e-05
   8640, 0.000484999997, 7.9999998e-05
   8641, 0.000484999997, 7.50000036e-05
   8642, 0.000484999997, 7.00000019e-05
   8643, 0.000484999997, 6.50000002e-05
   8644, 0.000484999997, 5.99999985e-05
   8645, 0.000484999997, 5.50000004e-05
   8646, 0.000484999997, 4.99999987e-05
   8647, 0.000484999997, 4.50000007e-05
   8648, 0.000484999997, 3.9999999e-05
   8649, 0.000484999997, 3.50000009e-05
   8650, 0.000484999997, 2.99999992e-05
   8651, 0.000484999997, 2.49999994e-05
   8652, 0.000484999997, 1.99999995e-05
   8653, 0.000484999997, 1.49999996e-05
   8654, 0.000484999997, 9.99999975e-06
   8655, 0.000484999997, 4.99999987e-06
   8656, 0.000490000006, 0.000195000001
   8657, 0.000490000006, 0.000190000006
   8658, 0.000490000006, 0.000184999997
   8659, 0.000490000006, 0.000180000003
   8660, 0.000490000006, 0.000174999994
   8661, 0.000490000006, 0.000169999999
   8662, 0.000490000006, 0.000165000005
   8663, 0.000490000006, 0.000159999996
   8664, 0.000490000006, 0.000155000002
   8665, 0.000490000006, 0.000150000007
   8666, 0.000490000006, 0.000144999998
   8667, 0.000490000006, 0.000140000004
   8668, 0.000490000006, 0.000134999995
   8669, 0.000490000006,      0.00013
   8670, 0.000490000006, 0.000125000006
   8671, 0.000490000006, 0.000119999997
   8672, 0.000490000006, 0.000115000003
   8673, 0.000490000006, 0.000110000001
   8674, 0.000490000006, 0.000104999999
   8675, 0.000490000006, 9.99999975e-05
   8676, 0.000490000006, 9.50000031e-05
   8677, 0.000490000006, 9.00000014e-05
   8678, 0.000490000006, 8.49999997e-05
   8679, 0.000490000006, 7.9999998e-05
   8680, 0.000490000006, 7.50000036e-05
   8681, 0.000490000006, 7.00000019e-05
   8682, 0.000490000006, 6.50000002e-05
   8683, 0.000490000006, 5.99999985e-05
   8684, 0.000490000006, 5.50000004e-05
   8685, 0.000490000006, 4.99999987e-05
   8686, 0.000490000006, 4.50000007e-05
   8687, 0.000490000006, 3.9999999e-05
   8688, 0.000490000006, 3.50000009e-05
   8689, 0.000490000006, 2.99999992e-05
   8690, 0.000490000006, 2.49999994e-05
   8691, 0.000490000006, 1.99999995e-05
   8692, 0.000490000006, 1.49999996e-05
   8693, 0.000490000006, 9.99999975e-06
   8694, 0.000490000006, 4.99999987e-06
   8695, 0.000494999986, 0.000195000001
   8696, 0.000494999986, 0.000190000006
   8697, 0.000494999986, 0.000184999997
   8698, 0.000494999986, 0.000180000003
   8699, 0.000494999986, 0.000174999994
   8700, 0.000494999986, 0.000169999999
   8701, 0.000494999986, 0.000165000005
   8702, 0.000494999986, 0.000159999996
   8703, 0.000494999986, 0.000155000002
   8704, 0.000494999986, 0.000150000007
   8705, 0.000494999986, 0.000144999998
   8706, 0.000494999986, 0.000140000004
   8707, 0.000494999986, 0.000134999995
   8708, 0.000494999986,      0.00013
   8709, 0.000494999986, 0.000125000006
   8710, 0.000494999986, 0.000119999997
   8711, 0.000494999986, 0.000115000003
   8712, 0.000494999986, 0.000110000001
   8713, 0.000494999986, 0.000104999999
   8714, 0.000494999986, 9.99999975e-05
   8715, 0.000494999986, 9.50000031e-05
   8716, 0.000494999986, 9.00000014e-05
   8717, 0.000494999986, 8.49999997e-05
   8718, 0.000494999986, 7.9999998e-05
   8719, 0.000494999986, 7.50000036e-05
   8720, 0.000494999986, 7.00000019e-05
   8721, 0.000494999986, 6.50000002e-05
   8722, 0.000494999986, 5.99999985e-05
   8723, 0.000494999986, 5.50000004e-05
   8724, 0.000494999986, 4.99999987e-05
   8725, 0.000494999986, 4.50000007e-05
   8726, 0.000494999986, 3.9999999e-05
   8727, 0.000494999986, 3.50000009e-05
   8728, 0.000494999986, 2.99999992e-05
   8729, 0.000494999986, 2.49999994e-05
   8730, 0.000494999986, 1.99999995e-05
   8731, 0.000494999986, 1.49999996e-05
   8732, 0.000494999986, 9.99999975e-06
   8733, 0.000494999986, 4.99999987e-06
*Element, type=CPE4R
   1,    1,    9,  583,  404
   2,    9,   10,  584,  583
   3,   10,   11,  585,  584
   4,   11,   12,  586,  585
   5,   12,   13,  587,  586
   6,   13,   14,  588,  587
   7,   14,   15,  589,  588
   8,   15,   16,  590,  589
   9,   16,   17,  591,  590
  10,   17,   18,  592,  591
  11,   18,   19,  593,  592
  12,   19,   20,  594,  593
  13,   20,   21,  595,  594
  14,   21,   22,  596,  595
  15,   22,   23,  597,  596
  16,   23,   24,  598,  597
  17,   24,   25,  599,  598
  18,   25,   26,  600,  599
  19,   26,   27,  601,  600
  20,   27,   28,  602,  601
  21,   28,   29,  603,  602
  22,   29,   30,  604,  603
  23,   30,   31,  605,  604
  24,   31,   32,  606,  605
  25,   32,   33,  607,  606
  26,   33,   34,  608,  607
  27,   34,   35,  609,  608
  28,   35,   36,  610,  609
  29,   36,   37,  611,  610
  30,   37,   38,  612,  611
  31,   38,   39,  613,  612
  32,   39,   40,  614,  613
  33,   40,   41,  615,  614
  34,   41,   42,  616,  615
  35,   42,   43,  617,  616
  36,   43,   44,  618,  617
  37,   44,   45,  619,  618
  38,   45,   46,  620,  619
  39,   46,   47,  621,  620
  40,   47,    2,   48,  621
  41,  404,  583,  622,  403
  42,  583,  584,  623,  622
  43,  584,  585,  624,  623
  44,  585,  586,  625,  624
  45,  586,  587,  626,  625
  46,  587,  588,  627,  626
  47,  588,  589,  628,  627
  48,  589,  590,  629,  628
  49,  590,  591,  630,  629
  50,  591,  592,  631,  630
  51,  592,  593,  632,  631
  52,  593,  594,  633,  632
  53,  594,  595,  634,  633
  54,  595,  596,  635,  634
  55,  596,  597,  636,  635
  56,  597,  598,  637,  636
  57,  598,  599,  638,  637
  58,  599,  600,  639,  638
  59,  600,  601,  640,  639
  60,  601,  602,  641,  640
  61,  602,  603,  642,  641
  62,  603,  604,  643,  642
  63,  604,  605,  644,  643
  64,  605,  606,  645,  644
  65,  606,  607,  646,  645
  66,  607,  608,  647,  646
  67,  608,  609,  648,  647
  68,  609,  610,  649,  648
  69,  610,  611,  650,  649
  70,  611,  612,  651,  650
  71,  612,  613,  652,  651
  72,  613,  614,  653,  652
  73,  614,  615,  654,  653
  74,  615,  616,  655,  654
  75,  616,  617,  656,  655
  76,  617,  618,  657,  656
  77,  618,  619,  658,  657
  78,  619,  620,  659,  658
  79,  620,  621,  660,  659
  80,  621,   48,   49,  660
  81,  403,  622,  661,  402
  82,  622,  623,  662,  661
  83,  623,  624,  663,  662
  84,  624,  625,  664,  663
  85,  625,  626,  665,  664
  86,  626,  627,  666,  665
  87,  627,  628,  667,  666
  88,  628,  629,  668,  667
  89,  629,  630,  669,  668
  90,  630,  631,  670,  669
  91,  631,  632,  671,  670
  92,  632,  633,  672,  671
  93,  633,  634,  673,  672
  94,  634,  635,  674,  673
  95,  635,  636,  675,  674
  96,  636,  637,  676,  675
  97,  637,  638,  677,  676
  98,  638,  639,  678,  677
  99,  639,  640,  679,  678
 100,  640,  641,  680,  679
 101,  641,  642,  681,  680
 102,  642,  643,  682,  681
 103,  643,  644,  683,  682
 104,  644,  645,  684,  683
 105,  645,  646,  685,  684
 106,  646,  647,  686,  685
 107,  647,  648,  687,  686
 108,  648,  649,  688,  687
 109,  649,  650,  689,  688
 110,  650,  651,  690,  689
 111,  651,  652,  691,  690
 112,  652,  653,  692,  691
 113,  653,  654,  693,  692
 114,  654,  655,  694,  693
 115,  655,  656,  695,  694
 116,  656,  657,  696,  695
 117,  657,  658,  697,  696
 118,  658,  659,  698,  697
 119,  659,  660,  699,  698
 120,  660,   49,   50,  699
 121,  402,  661,  700,  401
 122,  661,  662,  701,  700
 123,  662,  663,  702,  701
 124,  663,  664,  703,  702
 125,  664,  665,  704,  703
 126,  665,  666,  705,  704
 127,  666,  667,  706,  705
 128,  667,  668,  707,  706
 129,  668,  669,  708,  707
 130,  669,  670,  709,  708
 131,  670,  671,  710,  709
 132,  671,  672,  711,  710
 133,  672,  673,  712,  711
 134,  673,  674,  713,  712
 135,  674,  675,  714,  713
 136,  675,  676,  715,  714
 137,  676,  677,  716,  715
 138,  677,  678,  717,  716
 139,  678,  679,  718,  717
 140,  679,  680,  719,  718
 141,  680,  681,  720,  719
 142,  681,  682,  721,  720
 143,  682,  683,  722,  721
 144,  683,  684,  723,  722
 145,  684,  685,  724,  723
 146,  685,  686,  725,  724
 147,  686,  687,  726,  725
 148,  687,  688,  727,  726
 149,  688,  689,  728,  727
 150,  689,  690,  729,  728
 151,  690,  691,  730,  729
 152,  691,  692,  731,  730
 153,  692,  693,  732,  731
 154,  693,  694,  733,  732
 155,  694,  695,  734,  733
 156,  695,  696,  735,  734
 157,  696,  697,  736,  735
 158,  697,  698,  737,  736
 159,  698,  699,  738,  737
 160,  699,   50,   51,  738
 161,  401,  700,  739,  400
 162,  700,  701,  740,  739
 163,  701,  702,  741,  740
 164,  702,  703,  742,  741
 165,  703,  704,  743,  742
 166,  704,  705,  744,  743
 167,  705,  706,  745,  744
 168,  706,  707,  746,  745
 169,  707,  708,  747,  746
 170,  708,  709,  748,  747
 171,  709,  710,  749,  748
 172,  710,  711,  750,  749
 173,  711,  712,  751,  750
 174,  712,  713,  752,  751
 175,  713,  714,  753,  752
 176,  714,  715,  754,  753
 177,  715,  716,  755,  754
 178,  716,  717,  756,  755
 179,  717,  718,  757,  756
 180,  718,  719,  758,  757
 181,  719,  720,  759,  758
 182,  720,  721,  760,  759
 183,  721,  722,  761,  760
 184,  722,  723,  762,  761
 185,  723,  724,  763,  762
 186,  724,  725,  764,  763
 187,  725,  726,  765,  764
 188,  726,  727,  766,  765
 189,  727,  728,  767,  766
 190,  728,  729,  768,  767
 191,  729,  730,  769,  768
 192,  730,  731,  770,  769
 193,  731,  732,  771,  770
 194,  732,  733,  772,  771
 195,  733,  734,  773,  772
 196,  734,  735,  774,  773
 197,  735,  736,  775,  774
 198,  736,  737,  776,  775
 199,  737,  738,  777,  776
 200,  738,   51,   52,  777
 201,  400,  739,  778,  399
 202,  739,  740,  779,  778
 203,  740,  741,  780,  779
 204,  741,  742,  781,  780
 205,  742,  743,  782,  781
 206,  743,  744,  783,  782
 207,  744,  745,  784,  783
 208,  745,  746,  785,  784
 209,  746,  747,  786,  785
 210,  747,  748,  787,  786
 211,  748,  749,  788,  787
 212,  749,  750,  789,  788
 213,  750,  751,  790,  789
 214,  751,  752,  791,  790
 215,  752,  753,  792,  791
 216,  753,  754,  793,  792
 217,  754,  755,  794,  793
 218,  755,  756,  795,  794
 219,  756,  757,  796,  795
 220,  757,  758,  797,  796
 221,  758,  759,  798,  797
 222,  759,  760,  799,  798
 223,  760,  761,  800,  799
 224,  761,  762,  801,  800
 225,  762,  763,  802,  801
 226,  763,  764,  803,  802
 227,  764,  765,  804,  803
 228,  765,  766,  805,  804
 229,  766,  767,  806,  805
 230,  767,  768,  807,  806
 231,  768,  769,  808,  807
 232,  769,  770,  809,  808
 233,  770,  771,  810,  809
 234,  771,  772,  811,  810
 235,  772,  773,  812,  811
 236,  773,  774,  813,  812
 237,  774,  775,  814,  813
 238,  775,  776,  815,  814
 239,  776,  777,  816,  815
 240,  777,   52,   53,  816
 241,  399,  778,  817,  398
 242,  778,  779,  818,  817
 243,  779,  780,  819,  818
 244,  780,  781,  820,  819
 245,  781,  782,  821,  820
 246,  782,  783,  822,  821
 247,  783,  784,  823,  822
 248,  784,  785,  824,  823
 249,  785,  786,  825,  824
 250,  786,  787,  826,  825
 251,  787,  788,  827,  826
 252,  788,  789,  828,  827
 253,  789,  790,  829,  828
 254,  790,  791,  830,  829
 255,  791,  792,  831,  830
 256,  792,  793,  832,  831
 257,  793,  794,  833,  832
 258,  794,  795,  834,  833
 259,  795,  796,  835,  834
 260,  796,  797,  836,  835
 261,  797,  798,  837,  836
 262,  798,  799,  838,  837
 263,  799,  800,  839,  838
 264,  800,  801,  840,  839
 265,  801,  802,  841,  840
 266,  802,  803,  842,  841
 267,  803,  804,  843,  842
 268,  804,  805,  844,  843
 269,  805,  806,  845,  844
 270,  806,  807,  846,  845
 271,  807,  808,  847,  846
 272,  808,  809,  848,  847
 273,  809,  810,  849,  848
 274,  810,  811,  850,  849
 275,  811,  812,  851,  850
 276,  812,  813,  852,  851
 277,  813,  814,  853,  852
 278,  814,  815,  854,  853
 279,  815,  816,  855,  854
 280,  816,   53,   54,  855
 281,  398,  817,  856,  397
 282,  817,  818,  857,  856
 283,  818,  819,  858,  857
 284,  819,  820,  859,  858
 285,  820,  821,  860,  859
 286,  821,  822,  861,  860
 287,  822,  823,  862,  861
 288,  823,  824,  863,  862
 289,  824,  825,  864,  863
 290,  825,  826,  865,  864
 291,  826,  827,  866,  865
 292,  827,  828,  867,  866
 293,  828,  829,  868,  867
 294,  829,  830,  869,  868
 295,  830,  831,  870,  869
 296,  831,  832,  871,  870
 297,  832,  833,  872,  871
 298,  833,  834,  873,  872
 299,  834,  835,  874,  873
 300,  835,  836,  875,  874
 301,  836,  837,  876,  875
 302,  837,  838,  877,  876
 303,  838,  839,  878,  877
 304,  839,  840,  879,  878
 305,  840,  841,  880,  879
 306,  841,  842,  881,  880
 307,  842,  843,  882,  881
 308,  843,  844,  883,  882
 309,  844,  845,  884,  883
 310,  845,  846,  885,  884
 311,  846,  847,  886,  885
 312,  847,  848,  887,  886
 313,  848,  849,  888,  887
 314,  849,  850,  889,  888
 315,  850,  851,  890,  889
 316,  851,  852,  891,  890
 317,  852,  853,  892,  891
 318,  853,  854,  893,  892
 319,  854,  855,  894,  893
 320,  855,   54,   55,  894
 321,  397,  856,  895,  396
 322,  856,  857,  896,  895
 323,  857,  858,  897,  896
 324,  858,  859,  898,  897
 325,  859,  860,  899,  898
 326,  860,  861,  900,  899
 327,  861,  862,  901,  900
 328,  862,  863,  902,  901
 329,  863,  864,  903,  902
 330,  864,  865,  904,  903
 331,  865,  866,  905,  904
 332,  866,  867,  906,  905
 333,  867,  868,  907,  906
 334,  868,  869,  908,  907
 335,  869,  870,  909,  908
 336,  870,  871,  910,  909
 337,  871,  872,  911,  910
 338,  872,  873,  912,  911
 339,  873,  874,  913,  912
 340,  874,  875,  914,  913
 341,  875,  876,  915,  914
 342,  876,  877,  916,  915
 343,  877,  878,  917,  916
 344,  878,  879,  918,  917
 345,  879,  880,  919,  918
 346,  880,  881,  920,  919
 347,  881,  882,  921,  920
 348,  882,  883,  922,  921
 349,  883,  884,  923,  922
 350,  884,  885,  924,  923
 351,  885,  886,  925,  924
 352,  886,  887,  926,  925
 353,  887,  888,  927,  926
 354,  888,  889,  928,  927
 355,  889,  890,  929,  928
 356,  890,  891,  930,  929
 357,  891,  892,  931,  930
 358,  892,  893,  932,  931
 359,  893,  894,  933,  932
 360,  894,   55,   56,  933
 361,  396,  895,  934,  395
 362,  895,  896,  935,  934
 363,  896,  897,  936,  935
 364,  897,  898,  937,  936
 365,  898,  899,  938,  937
 366,  899,  900,  939,  938
 367,  900,  901,  940,  939
 368,  901,  902,  941,  940
 369,  902,  903,  942,  941
 370,  903,  904,  943,  942
 371,  904,  905,  944,  943
 372,  905,  906,  945,  944
 373,  906,  907,  946,  945
 374,  907,  908,  947,  946
 375,  908,  909,  948,  947
 376,  909,  910,  949,  948
 377,  910,  911,  950,  949
 378,  911,  912,  951,  950
 379,  912,  913,  952,  951
 380,  913,  914,  953,  952
 381,  914,  915,  954,  953
 382,  915,  916,  955,  954
 383,  916,  917,  956,  955
 384,  917,  918,  957,  956
 385,  918,  919,  958,  957
 386,  919,  920,  959,  958
 387,  920,  921,  960,  959
 388,  921,  922,  961,  960
 389,  922,  923,  962,  961
 390,  923,  924,  963,  962
 391,  924,  925,  964,  963
 392,  925,  926,  965,  964
 393,  926,  927,  966,  965
 394,  927,  928,  967,  966
 395,  928,  929,  968,  967
 396,  929,  930,  969,  968
 397,  930,  931,  970,  969
 398,  931,  932,  971,  970
 399,  932,  933,  972,  971
 400,  933,   56,   57,  972
 401,  395,  934,  973,  394
 402,  934,  935,  974,  973
 403,  935,  936,  975,  974
 404,  936,  937,  976,  975
 405,  937,  938,  977,  976
 406,  938,  939,  978,  977
 407,  939,  940,  979,  978
 408,  940,  941,  980,  979
 409,  941,  942,  981,  980
 410,  942,  943,  982,  981
 411,  943,  944,  983,  982
 412,  944,  945,  984,  983
 413,  945,  946,  985,  984
 414,  946,  947,  986,  985
 415,  947,  948,  987,  986
 416,  948,  949,  988,  987
 417,  949,  950,  989,  988
 418,  950,  951,  990,  989
 419,  951,  952,  991,  990
 420,  952,  953,  992,  991
 421,  953,  954,  993,  992
 422,  954,  955,  994,  993
 423,  955,  956,  995,  994
 424,  956,  957,  996,  995
 425,  957,  958,  997,  996
 426,  958,  959,  998,  997
 427,  959,  960,  999,  998
 428,  960,  961, 1000,  999
 429,  961,  962, 1001, 1000
 430,  962,  963, 1002, 1001
 431,  963,  964, 1003, 1002
 432,  964,  965, 1004, 1003
 433,  965,  966, 1005, 1004
 434,  966,  967, 1006, 1005
 435,  967,  968, 1007, 1006
 436,  968,  969, 1008, 1007
 437,  969,  970, 1009, 1008
 438,  970,  971, 1010, 1009
 439,  971,  972, 1011, 1010
 440,  972,   57,   58, 1011
 441,  394,  973, 1012,  393
 442,  973,  974, 1013, 1012
 443,  974,  975, 1014, 1013
 444,  975,  976, 1015, 1014
 445,  976,  977, 1016, 1015
 446,  977,  978, 1017, 1016
 447,  978,  979, 1018, 1017
 448,  979,  980, 1019, 1018
 449,  980,  981, 1020, 1019
 450,  981,  982, 1021, 1020
 451,  982,  983, 1022, 1021
 452,  983,  984, 1023, 1022
 453,  984,  985, 1024, 1023
 454,  985,  986, 1025, 1024
 455,  986,  987, 1026, 1025
 456,  987,  988, 1027, 1026
 457,  988,  989, 1028, 1027
 458,  989,  990, 1029, 1028
 459,  990,  991, 1030, 1029
 460,  991,  992, 1031, 1030
 461,  992,  993, 1032, 1031
 462,  993,  994, 1033, 1032
 463,  994,  995, 1034, 1033
 464,  995,  996, 1035, 1034
 465,  996,  997, 1036, 1035
 466,  997,  998, 1037, 1036
 467,  998,  999, 1038, 1037
 468,  999, 1000, 1039, 1038
 469, 1000, 1001, 1040, 1039
 470, 1001, 1002, 1041, 1040
 471, 1002, 1003, 1042, 1041
 472, 1003, 1004, 1043, 1042
 473, 1004, 1005, 1044, 1043
 474, 1005, 1006, 1045, 1044
 475, 1006, 1007, 1046, 1045
 476, 1007, 1008, 1047, 1046
 477, 1008, 1009, 1048, 1047
 478, 1009, 1010, 1049, 1048
 479, 1010, 1011, 1050, 1049
 480, 1011,   58,   59, 1050
 481,  393, 1012, 1051,  392
 482, 1012, 1013, 1052, 1051
 483, 1013, 1014, 1053, 1052
 484, 1014, 1015, 1054, 1053
 485, 1015, 1016, 1055, 1054
 486, 1016, 1017, 1056, 1055
 487, 1017, 1018, 1057, 1056
 488, 1018, 1019, 1058, 1057
 489, 1019, 1020, 1059, 1058
 490, 1020, 1021, 1060, 1059
 491, 1021, 1022, 1061, 1060
 492, 1022, 1023, 1062, 1061
 493, 1023, 1024, 1063, 1062
 494, 1024, 1025, 1064, 1063
 495, 1025, 1026, 1065, 1064
 496, 1026, 1027, 1066, 1065
 497, 1027, 1028, 1067, 1066
 498, 1028, 1029, 1068, 1067
 499, 1029, 1030, 1069, 1068
 500, 1030, 1031, 1070, 1069
 501, 1031, 1032, 1071, 1070
 502, 1032, 1033, 1072, 1071
 503, 1033, 1034, 1073, 1072
 504, 1034, 1035, 1074, 1073
 505, 1035, 1036, 1075, 1074
 506, 1036, 1037, 1076, 1075
 507, 1037, 1038, 1077, 1076
 508, 1038, 1039, 1078, 1077
 509, 1039, 1040, 1079, 1078
 510, 1040, 1041, 1080, 1079
 511, 1041, 1042, 1081, 1080
 512, 1042, 1043, 1082, 1081
 513, 1043, 1044, 1083, 1082
 514, 1044, 1045, 1084, 1083
 515, 1045, 1046, 1085, 1084
 516, 1046, 1047, 1086, 1085
 517, 1047, 1048, 1087, 1086
 518, 1048, 1049, 1088, 1087
 519, 1049, 1050, 1089, 1088
 520, 1050,   59,   60, 1089
 521,  392, 1051, 1090,  391
 522, 1051, 1052, 1091, 1090
 523, 1052, 1053, 1092, 1091
 524, 1053, 1054, 1093, 1092
 525, 1054, 1055, 1094, 1093
 526, 1055, 1056, 1095, 1094
 527, 1056, 1057, 1096, 1095
 528, 1057, 1058, 1097, 1096
 529, 1058, 1059, 1098, 1097
 530, 1059, 1060, 1099, 1098
 531, 1060, 1061, 1100, 1099
 532, 1061, 1062, 1101, 1100
 533, 1062, 1063, 1102, 1101
 534, 1063, 1064, 1103, 1102
 535, 1064, 1065, 1104, 1103
 536, 1065, 1066, 1105, 1104
 537, 1066, 1067, 1106, 1105
 538, 1067, 1068, 1107, 1106
 539, 1068, 1069, 1108, 1107
 540, 1069, 1070, 1109, 1108
 541, 1070, 1071, 1110, 1109
 542, 1071, 1072, 1111, 1110
 543, 1072, 1073, 1112, 1111
 544, 1073, 1074, 1113, 1112
 545, 1074, 1075, 1114, 1113
 546, 1075, 1076, 1115, 1114
 547, 1076, 1077, 1116, 1115
 548, 1077, 1078, 1117, 1116
 549, 1078, 1079, 1118, 1117
 550, 1079, 1080, 1119, 1118
 551, 1080, 1081, 1120, 1119
 552, 1081, 1082, 1121, 1120
 553, 1082, 1083, 1122, 1121
 554, 1083, 1084, 1123, 1122
 555, 1084, 1085, 1124, 1123
 556, 1085, 1086, 1125, 1124
 557, 1086, 1087, 1126, 1125
 558, 1087, 1088, 1127, 1126
 559, 1088, 1089, 1128, 1127
 560, 1089,   60,   61, 1128
 561,  391, 1090, 1129,  390
 562, 1090, 1091, 1130, 1129
 563, 1091, 1092, 1131, 1130
 564, 1092, 1093, 1132, 1131
 565, 1093, 1094, 1133, 1132
 566, 1094, 1095, 1134, 1133
 567, 1095, 1096, 1135, 1134
 568, 1096, 1097, 1136, 1135
 569, 1097, 1098, 1137, 1136
 570, 1098, 1099, 1138, 1137
 571, 1099, 1100, 1139, 1138
 572, 1100, 1101, 1140, 1139
 573, 1101, 1102, 1141, 1140
 574, 1102, 1103, 1142, 1141
 575, 1103, 1104, 1143, 1142
 576, 1104, 1105, 1144, 1143
 577, 1105, 1106, 1145, 1144
 578, 1106, 1107, 1146, 1145
 579, 1107, 1108, 1147, 1146
 580, 1108, 1109, 1148, 1147
 581, 1109, 1110, 1149, 1148
 582, 1110, 1111, 1150, 1149
 583, 1111, 1112, 1151, 1150
 584, 1112, 1113, 1152, 1151
 585, 1113, 1114, 1153, 1152
 586, 1114, 1115, 1154, 1153
 587, 1115, 1116, 1155, 1154
 588, 1116, 1117, 1156, 1155
 589, 1117, 1118, 1157, 1156
 590, 1118, 1119, 1158, 1157
 591, 1119, 1120, 1159, 1158
 592, 1120, 1121, 1160, 1159
 593, 1121, 1122, 1161, 1160
 594, 1122, 1123, 1162, 1161
 595, 1123, 1124, 1163, 1162
 596, 1124, 1125, 1164, 1163
 597, 1125, 1126, 1165, 1164
 598, 1126, 1127, 1166, 1165
 599, 1127, 1128, 1167, 1166
 600, 1128,   61,   62, 1167
 601,  390, 1129, 1168,  389
 602, 1129, 1130, 1169, 1168
 603, 1130, 1131, 1170, 1169
 604, 1131, 1132, 1171, 1170
 605, 1132, 1133, 1172, 1171
 606, 1133, 1134, 1173, 1172
 607, 1134, 1135, 1174, 1173
 608, 1135, 1136, 1175, 1174
 609, 1136, 1137, 1176, 1175
 610, 1137, 1138, 1177, 1176
 611, 1138, 1139, 1178, 1177
 612, 1139, 1140, 1179, 1178
 613, 1140, 1141, 1180, 1179
 614, 1141, 1142, 1181, 1180
 615, 1142, 1143, 1182, 1181
 616, 1143, 1144, 1183, 1182
 617, 1144, 1145, 1184, 1183
 618, 1145, 1146, 1185, 1184
 619, 1146, 1147, 1186, 1185
 620, 1147, 1148, 1187, 1186
 621, 1148, 1149, 1188, 1187
 622, 1149, 1150, 1189, 1188
 623, 1150, 1151, 1190, 1189
 624, 1151, 1152, 1191, 1190
 625, 1152, 1153, 1192, 1191
 626, 1153, 1154, 1193, 1192
 627, 1154, 1155, 1194, 1193
 628, 1155, 1156, 1195, 1194
 629, 1156, 1157, 1196, 1195
 630, 1157, 1158, 1197, 1196
 631, 1158, 1159, 1198, 1197
 632, 1159, 1160, 1199, 1198
 633, 1160, 1161, 1200, 1199
 634, 1161, 1162, 1201, 1200
 635, 1162, 1163, 1202, 1201
 636, 1163, 1164, 1203, 1202
 637, 1164, 1165, 1204, 1203
 638, 1165, 1166, 1205, 1204
 639, 1166, 1167, 1206, 1205
 640, 1167,   62,   63, 1206
 641,  389, 1168, 1207,  388
 642, 1168, 1169, 1208, 1207
 643, 1169, 1170, 1209, 1208
 644, 1170, 1171, 1210, 1209
 645, 1171, 1172, 1211, 1210
 646, 1172, 1173, 1212, 1211
 647, 1173, 1174, 1213, 1212
 648, 1174, 1175, 1214, 1213
 649, 1175, 1176, 1215, 1214
 650, 1176, 1177, 1216, 1215
 651, 1177, 1178, 1217, 1216
 652, 1178, 1179, 1218, 1217
 653, 1179, 1180, 1219, 1218
 654, 1180, 1181, 1220, 1219
 655, 1181, 1182, 1221, 1220
 656, 1182, 1183, 1222, 1221
 657, 1183, 1184, 1223, 1222
 658, 1184, 1185, 1224, 1223
 659, 1185, 1186, 1225, 1224
 660, 1186, 1187, 1226, 1225
 661, 1187, 1188, 1227, 1226
 662, 1188, 1189, 1228, 1227
 663, 1189, 1190, 1229, 1228
 664, 1190, 1191, 1230, 1229
 665, 1191, 1192, 1231, 1230
 666, 1192, 1193, 1232, 1231
 667, 1193, 1194, 1233, 1232
 668, 1194, 1195, 1234, 1233
 669, 1195, 1196, 1235, 1234
 670, 1196, 1197, 1236, 1235
 671, 1197, 1198, 1237, 1236
 672, 1198, 1199, 1238, 1237
 673, 1199, 1200, 1239, 1238
 674, 1200, 1201, 1240, 1239
 675, 1201, 1202, 1241, 1240
 676, 1202, 1203, 1242, 1241
 677, 1203, 1204, 1243, 1242
 678, 1204, 1205, 1244, 1243
 679, 1205, 1206, 1245, 1244
 680, 1206,   63,   64, 1245
 681,  388, 1207, 1246,  387
 682, 1207, 1208, 1247, 1246
 683, 1208, 1209, 1248, 1247
 684, 1209, 1210, 1249, 1248
 685, 1210, 1211, 1250, 1249
 686, 1211, 1212, 1251, 1250
 687, 1212, 1213, 1252, 1251
 688, 1213, 1214, 1253, 1252
 689, 1214, 1215, 1254, 1253
 690, 1215, 1216, 1255, 1254
 691, 1216, 1217, 1256, 1255
 692, 1217, 1218, 1257, 1256
 693, 1218, 1219, 1258, 1257
 694, 1219, 1220, 1259, 1258
 695, 1220, 1221, 1260, 1259
 696, 1221, 1222, 1261, 1260
 697, 1222, 1223, 1262, 1261
 698, 1223, 1224, 1263, 1262
 699, 1224, 1225, 1264, 1263
 700, 1225, 1226, 1265, 1264
 701, 1226, 1227, 1266, 1265
 702, 1227, 1228, 1267, 1266
 703, 1228, 1229, 1268, 1267
 704, 1229, 1230, 1269, 1268
 705, 1230, 1231, 1270, 1269
 706, 1231, 1232, 1271, 1270
 707, 1232, 1233, 1272, 1271
 708, 1233, 1234, 1273, 1272
 709, 1234, 1235, 1274, 1273
 710, 1235, 1236, 1275, 1274
 711, 1236, 1237, 1276, 1275
 712, 1237, 1238, 1277, 1276
 713, 1238, 1239, 1278, 1277
 714, 1239, 1240, 1279, 1278
 715, 1240, 1241, 1280, 1279
 716, 1241, 1242, 1281, 1280
 717, 1242, 1243, 1282, 1281
 718, 1243, 1244, 1283, 1282
 719, 1244, 1245, 1284, 1283
 720, 1245,   64,   65, 1284
 721,  387, 1246, 1285,  386
 722, 1246, 1247, 1286, 1285
 723, 1247, 1248, 1287, 1286
 724, 1248, 1249, 1288, 1287
 725, 1249, 1250, 1289, 1288
 726, 1250, 1251, 1290, 1289
 727, 1251, 1252, 1291, 1290
 728, 1252, 1253, 1292, 1291
 729, 1253, 1254, 1293, 1292
 730, 1254, 1255, 1294, 1293
 731, 1255, 1256, 1295, 1294
 732, 1256, 1257, 1296, 1295
 733, 1257, 1258, 1297, 1296
 734, 1258, 1259, 1298, 1297
 735, 1259, 1260, 1299, 1298
 736, 1260, 1261, 1300, 1299
 737, 1261, 1262, 1301, 1300
 738, 1262, 1263, 1302, 1301
 739, 1263, 1264, 1303, 1302
 740, 1264, 1265, 1304, 1303
 741, 1265, 1266, 1305, 1304
 742, 1266, 1267, 1306, 1305
 743, 1267, 1268, 1307, 1306
 744, 1268, 1269, 1308, 1307
 745, 1269, 1270, 1309, 1308
 746, 1270, 1271, 1310, 1309
 747, 1271, 1272, 1311, 1310
 748, 1272, 1273, 1312, 1311
 749, 1273, 1274, 1313, 1312
 750, 1274, 1275, 1314, 1313
 751, 1275, 1276, 1315, 1314
 752, 1276, 1277, 1316, 1315
 753, 1277, 1278, 1317, 1316
 754, 1278, 1279, 1318, 1317
 755, 1279, 1280, 1319, 1318
 756, 1280, 1281, 1320, 1319
 757, 1281, 1282, 1321, 1320
 758, 1282, 1283, 1322, 1321
 759, 1283, 1284, 1323, 1322
 760, 1284,   65,   66, 1323
 761,  386, 1285, 1324,  385
 762, 1285, 1286, 1325, 1324
 763, 1286, 1287, 1326, 1325
 764, 1287, 1288, 1327, 1326
 765, 1288, 1289, 1328, 1327
 766, 1289, 1290, 1329, 1328
 767, 1290, 1291, 1330, 1329
 768, 1291, 1292, 1331, 1330
 769, 1292, 1293, 1332, 1331
 770, 1293, 1294, 1333, 1332
 771, 1294, 1295, 1334, 1333
 772, 1295, 1296, 1335, 1334
 773, 1296, 1297, 1336, 1335
 774, 1297, 1298, 1337, 1336
 775, 1298, 1299, 1338, 1337
 776, 1299, 1300, 1339, 1338
 777, 1300, 1301, 1340, 1339
 778, 1301, 1302, 1341, 1340
 779, 1302, 1303, 1342, 1341
 780, 1303, 1304, 1343, 1342
 781, 1304, 1305, 1344, 1343
 782, 1305, 1306, 1345, 1344
 783, 1306, 1307, 1346, 1345
 784, 1307, 1308, 1347, 1346
 785, 1308, 1309, 1348, 1347
 786, 1309, 1310, 1349, 1348
 787, 1310, 1311, 1350, 1349
 788, 1311, 1312, 1351, 1350
 789, 1312, 1313, 1352, 1351
 790, 1313, 1314, 1353, 1352
 791, 1314, 1315, 1354, 1353
 792, 1315, 1316, 1355, 1354
 793, 1316, 1317, 1356, 1355
 794, 1317, 1318, 1357, 1356
 795, 1318, 1319, 1358, 1357
 796, 1319, 1320, 1359, 1358
 797, 1320, 1321, 1360, 1359
 798, 1321, 1322, 1361, 1360
 799, 1322, 1323, 1362, 1361
 800, 1323,   66,   67, 1362
 801,  385, 1324, 1363,  384
 802, 1324, 1325, 1364, 1363
 803, 1325, 1326, 1365, 1364
 804, 1326, 1327, 1366, 1365
 805, 1327, 1328, 1367, 1366
 806, 1328, 1329, 1368, 1367
 807, 1329, 1330, 1369, 1368
 808, 1330, 1331, 1370, 1369
 809, 1331, 1332, 1371, 1370
 810, 1332, 1333, 1372, 1371
 811, 1333, 1334, 1373, 1372
 812, 1334, 1335, 1374, 1373
 813, 1335, 1336, 1375, 1374
 814, 1336, 1337, 1376, 1375
 815, 1337, 1338, 1377, 1376
 816, 1338, 1339, 1378, 1377
 817, 1339, 1340, 1379, 1378
 818, 1340, 1341, 1380, 1379
 819, 1341, 1342, 1381, 1380
 820, 1342, 1343, 1382, 1381
 821, 1343, 1344, 1383, 1382
 822, 1344, 1345, 1384, 1383
 823, 1345, 1346, 1385, 1384
 824, 1346, 1347, 1386, 1385
 825, 1347, 1348, 1387, 1386
 826, 1348, 1349, 1388, 1387
 827, 1349, 1350, 1389, 1388
 828, 1350, 1351, 1390, 1389
 829, 1351, 1352, 1391, 1390
 830, 1352, 1353, 1392, 1391
 831, 1353, 1354, 1393, 1392
 832, 1354, 1355, 1394, 1393
 833, 1355, 1356, 1395, 1394
 834, 1356, 1357, 1396, 1395
 835, 1357, 1358, 1397, 1396
 836, 1358, 1359, 1398, 1397
 837, 1359, 1360, 1399, 1398
 838, 1360, 1361, 1400, 1399
 839, 1361, 1362, 1401, 1400
 840, 1362,   67,   68, 1401
 841,  384, 1363, 1402,  383
 842, 1363, 1364, 1403, 1402
 843, 1364, 1365, 1404, 1403
 844, 1365, 1366, 1405, 1404
 845, 1366, 1367, 1406, 1405
 846, 1367, 1368, 1407, 1406
 847, 1368, 1369, 1408, 1407
 848, 1369, 1370, 1409, 1408
 849, 1370, 1371, 1410, 1409
 850, 1371, 1372, 1411, 1410
 851, 1372, 1373, 1412, 1411
 852, 1373, 1374, 1413, 1412
 853, 1374, 1375, 1414, 1413
 854, 1375, 1376, 1415, 1414
 855, 1376, 1377, 1416, 1415
 856, 1377, 1378, 1417, 1416
 857, 1378, 1379, 1418, 1417
 858, 1379, 1380, 1419, 1418
 859, 1380, 1381, 1420, 1419
 860, 1381, 1382, 1421, 1420
 861, 1382, 1383, 1422, 1421
 862, 1383, 1384, 1423, 1422
 863, 1384, 1385, 1424, 1423
 864, 1385, 1386, 1425, 1424
 865, 1386, 1387, 1426, 1425
 866, 1387, 1388, 1427, 1426
 867, 1388, 1389, 1428, 1427
 868, 1389, 1390, 1429, 1428
 869, 1390, 1391, 1430, 1429
 870, 1391, 1392, 1431, 1430
 871, 1392, 1393, 1432, 1431
 872, 1393, 1394, 1433, 1432
 873, 1394, 1395, 1434, 1433
 874, 1395, 1396, 1435, 1434
 875, 1396, 1397, 1436, 1435
 876, 1397, 1398, 1437, 1436
 877, 1398, 1399, 1438, 1437
 878, 1399, 1400, 1439, 1438
 879, 1400, 1401, 1440, 1439
 880, 1401,   68,   69, 1440
 881,  383, 1402, 1441,  382
 882, 1402, 1403, 1442, 1441
 883, 1403, 1404, 1443, 1442
 884, 1404, 1405, 1444, 1443
 885, 1405, 1406, 1445, 1444
 886, 1406, 1407, 1446, 1445
 887, 1407, 1408, 1447, 1446
 888, 1408, 1409, 1448, 1447
 889, 1409, 1410, 1449, 1448
 890, 1410, 1411, 1450, 1449
 891, 1411, 1412, 1451, 1450
 892, 1412, 1413, 1452, 1451
 893, 1413, 1414, 1453, 1452
 894, 1414, 1415, 1454, 1453
 895, 1415, 1416, 1455, 1454
 896, 1416, 1417, 1456, 1455
 897, 1417, 1418, 1457, 1456
 898, 1418, 1419, 1458, 1457
 899, 1419, 1420, 1459, 1458
 900, 1420, 1421, 1460, 1459
 901, 1421, 1422, 1461, 1460
 902, 1422, 1423, 1462, 1461
 903, 1423, 1424, 1463, 1462
 904, 1424, 1425, 1464, 1463
 905, 1425, 1426, 1465, 1464
 906, 1426, 1427, 1466, 1465
 907, 1427, 1428, 1467, 1466
 908, 1428, 1429, 1468, 1467
 909, 1429, 1430, 1469, 1468
 910, 1430, 1431, 1470, 1469
 911, 1431, 1432, 1471, 1470
 912, 1432, 1433, 1472, 1471
 913, 1433, 1434, 1473, 1472
 914, 1434, 1435, 1474, 1473
 915, 1435, 1436, 1475, 1474
 916, 1436, 1437, 1476, 1475
 917, 1437, 1438, 1477, 1476
 918, 1438, 1439, 1478, 1477
 919, 1439, 1440, 1479, 1478
 920, 1440,   69,   70, 1479
 921,  382, 1441, 1480,  381
 922, 1441, 1442, 1481, 1480
 923, 1442, 1443, 1482, 1481
 924, 1443, 1444, 1483, 1482
 925, 1444, 1445, 1484, 1483
 926, 1445, 1446, 1485, 1484
 927, 1446, 1447, 1486, 1485
 928, 1447, 1448, 1487, 1486
 929, 1448, 1449, 1488, 1487
 930, 1449, 1450, 1489, 1488
 931, 1450, 1451, 1490, 1489
 932, 1451, 1452, 1491, 1490
 933, 1452, 1453, 1492, 1491
 934, 1453, 1454, 1493, 1492
 935, 1454, 1455, 1494, 1493
 936, 1455, 1456, 1495, 1494
 937, 1456, 1457, 1496, 1495
 938, 1457, 1458, 1497, 1496
 939, 1458, 1459, 1498, 1497
 940, 1459, 1460, 1499, 1498
 941, 1460, 1461, 1500, 1499
 942, 1461, 1462, 1501, 1500
 943, 1462, 1463, 1502, 1501
 944, 1463, 1464, 1503, 1502
 945, 1464, 1465, 1504, 1503
 946, 1465, 1466, 1505, 1504
 947, 1466, 1467, 1506, 1505
 948, 1467, 1468, 1507, 1506
 949, 1468, 1469, 1508, 1507
 950, 1469, 1470, 1509, 1508
 951, 1470, 1471, 1510, 1509
 952, 1471, 1472, 1511, 1510
 953, 1472, 1473, 1512, 1511
 954, 1473, 1474, 1513, 1512
 955, 1474, 1475, 1514, 1513
 956, 1475, 1476, 1515, 1514
 957, 1476, 1477, 1516, 1515
 958, 1477, 1478, 1517, 1516
 959, 1478, 1479, 1518, 1517
 960, 1479,   70,   71, 1518
 961,  381, 1480, 1519,  380
 962, 1480, 1481, 1520, 1519
 963, 1481, 1482, 1521, 1520
 964, 1482, 1483, 1522, 1521
 965, 1483, 1484, 1523, 1522
 966, 1484, 1485, 1524, 1523
 967, 1485, 1486, 1525, 1524
 968, 1486, 1487, 1526, 1525
 969, 1487, 1488, 1527, 1526
 970, 1488, 1489, 1528, 1527
 971, 1489, 1490, 1529, 1528
 972, 1490, 1491, 1530, 1529
 973, 1491, 1492, 1531, 1530
 974, 1492, 1493, 1532, 1531
 975, 1493, 1494, 1533, 1532
 976, 1494, 1495, 1534, 1533
 977, 1495, 1496, 1535, 1534
 978, 1496, 1497, 1536, 1535
 979, 1497, 1498, 1537, 1536
 980, 1498, 1499, 1538, 1537
 981, 1499, 1500, 1539, 1538
 982, 1500, 1501, 1540, 1539
 983, 1501, 1502, 1541, 1540
 984, 1502, 1503, 1542, 1541
 985, 1503, 1504, 1543, 1542
 986, 1504, 1505, 1544, 1543
 987, 1505, 1506, 1545, 1544
 988, 1506, 1507, 1546, 1545
 989, 1507, 1508, 1547, 1546
 990, 1508, 1509, 1548, 1547
 991, 1509, 1510, 1549, 1548
 992, 1510, 1511, 1550, 1549
 993, 1511, 1512, 1551, 1550
 994, 1512, 1513, 1552, 1551
 995, 1513, 1514, 1553, 1552
 996, 1514, 1515, 1554, 1553
 997, 1515, 1516, 1555, 1554
 998, 1516, 1517, 1556, 1555
 999, 1517, 1518, 1557, 1556
1000, 1518,   71,   72, 1557
1001,  380, 1519, 1558,  379
1002, 1519, 1520, 1559, 1558
1003, 1520, 1521, 1560, 1559
1004, 1521, 1522, 1561, 1560
1005, 1522, 1523, 1562, 1561
1006, 1523, 1524, 1563, 1562
1007, 1524, 1525, 1564, 1563
1008, 1525, 1526, 1565, 1564
1009, 1526, 1527, 1566, 1565
1010, 1527, 1528, 1567, 1566
1011, 1528, 1529, 1568, 1567
1012, 1529, 1530, 1569, 1568
1013, 1530, 1531, 1570, 1569
1014, 1531, 1532, 1571, 1570
1015, 1532, 1533, 1572, 1571
1016, 1533, 1534, 1573, 1572
1017, 1534, 1535, 1574, 1573
1018, 1535, 1536, 1575, 1574
1019, 1536, 1537, 1576, 1575
1020, 1537, 1538, 1577, 1576
1021, 1538, 1539, 1578, 1577
1022, 1539, 1540, 1579, 1578
1023, 1540, 1541, 1580, 1579
1024, 1541, 1542, 1581, 1580
1025, 1542, 1543, 1582, 1581
1026, 1543, 1544, 1583, 1582
1027, 1544, 1545, 1584, 1583
1028, 1545, 1546, 1585, 1584
1029, 1546, 1547, 1586, 1585
1030, 1547, 1548, 1587, 1586
1031, 1548, 1549, 1588, 1587
1032, 1549, 1550, 1589, 1588
1033, 1550, 1551, 1590, 1589
1034, 1551, 1552, 1591, 1590
1035, 1552, 1553, 1592, 1591
1036, 1553, 1554, 1593, 1592
1037, 1554, 1555, 1594, 1593
1038, 1555, 1556, 1595, 1594
1039, 1556, 1557, 1596, 1595
1040, 1557,   72,   73, 1596
1041,  379, 1558, 1597,  378
1042, 1558, 1559, 1598, 1597
1043, 1559, 1560, 1599, 1598
1044, 1560, 1561, 1600, 1599
1045, 1561, 1562, 1601, 1600
1046, 1562, 1563, 1602, 1601
1047, 1563, 1564, 1603, 1602
1048, 1564, 1565, 1604, 1603
1049, 1565, 1566, 1605, 1604
1050, 1566, 1567, 1606, 1605
1051, 1567, 1568, 1607, 1606
1052, 1568, 1569, 1608, 1607
1053, 1569, 1570, 1609, 1608
1054, 1570, 1571, 1610, 1609
1055, 1571, 1572, 1611, 1610
1056, 1572, 1573, 1612, 1611
1057, 1573, 1574, 1613, 1612
1058, 1574, 1575, 1614, 1613
1059, 1575, 1576, 1615, 1614
1060, 1576, 1577, 1616, 1615
1061, 1577, 1578, 1617, 1616
1062, 1578, 1579, 1618, 1617
1063, 1579, 1580, 1619, 1618
1064, 1580, 1581, 1620, 1619
1065, 1581, 1582, 1621, 1620
1066, 1582, 1583, 1622, 1621
1067, 1583, 1584, 1623, 1622
1068, 1584, 1585, 1624, 1623
1069, 1585, 1586, 1625, 1624
1070, 1586, 1587, 1626, 1625
1071, 1587, 1588, 1627, 1626
1072, 1588, 1589, 1628, 1627
1073, 1589, 1590, 1629, 1628
1074, 1590, 1591, 1630, 1629
1075, 1591, 1592, 1631, 1630
1076, 1592, 1593, 1632, 1631
1077, 1593, 1594, 1633, 1632
1078, 1594, 1595, 1634, 1633
1079, 1595, 1596, 1635, 1634
1080, 1596,   73,   74, 1635
1081,  378, 1597, 1636,  377
1082, 1597, 1598, 1637, 1636
1083, 1598, 1599, 1638, 1637
1084, 1599, 1600, 1639, 1638
1085, 1600, 1601, 1640, 1639
1086, 1601, 1602, 1641, 1640
1087, 1602, 1603, 1642, 1641
1088, 1603, 1604, 1643, 1642
1089, 1604, 1605, 1644, 1643
1090, 1605, 1606, 1645, 1644
1091, 1606, 1607, 1646, 1645
1092, 1607, 1608, 1647, 1646
1093, 1608, 1609, 1648, 1647
1094, 1609, 1610, 1649, 1648
1095, 1610, 1611, 1650, 1649
1096, 1611, 1612, 1651, 1650
1097, 1612, 1613, 1652, 1651
1098, 1613, 1614, 1653, 1652
1099, 1614, 1615, 1654, 1653
1100, 1615, 1616, 1655, 1654
1101, 1616, 1617, 1656, 1655
1102, 1617, 1618, 1657, 1656
1103, 1618, 1619, 1658, 1657
1104, 1619, 1620, 1659, 1658
1105, 1620, 1621, 1660, 1659
1106, 1621, 1622, 1661, 1660
1107, 1622, 1623, 1662, 1661
1108, 1623, 1624, 1663, 1662
1109, 1624, 1625, 1664, 1663
1110, 1625, 1626, 1665, 1664
1111, 1626, 1627, 1666, 1665
1112, 1627, 1628, 1667, 1666
1113, 1628, 1629, 1668, 1667
1114, 1629, 1630, 1669, 1668
1115, 1630, 1631, 1670, 1669
1116, 1631, 1632, 1671, 1670
1117, 1632, 1633, 1672, 1671
1118, 1633, 1634, 1673, 1672
1119, 1634, 1635, 1674, 1673
1120, 1635,   74,   75, 1674
1121,  377, 1636, 1675,  376
1122, 1636, 1637, 1676, 1675
1123, 1637, 1638, 1677, 1676
1124, 1638, 1639, 1678, 1677
1125, 1639, 1640, 1679, 1678
1126, 1640, 1641, 1680, 1679
1127, 1641, 1642, 1681, 1680
1128, 1642, 1643, 1682, 1681
1129, 1643, 1644, 1683, 1682
1130, 1644, 1645, 1684, 1683
1131, 1645, 1646, 1685, 1684
1132, 1646, 1647, 1686, 1685
1133, 1647, 1648, 1687, 1686
1134, 1648, 1649, 1688, 1687
1135, 1649, 1650, 1689, 1688
1136, 1650, 1651, 1690, 1689
1137, 1651, 1652, 1691, 1690
1138, 1652, 1653, 1692, 1691
1139, 1653, 1654, 1693, 1692
1140, 1654, 1655, 1694, 1693
1141, 1655, 1656, 1695, 1694
1142, 1656, 1657, 1696, 1695
1143, 1657, 1658, 1697, 1696
1144, 1658, 1659, 1698, 1697
1145, 1659, 1660, 1699, 1698
1146, 1660, 1661, 1700, 1699
1147, 1661, 1662, 1701, 1700
1148, 1662, 1663, 1702, 1701
1149, 1663, 1664, 1703, 1702
1150, 1664, 1665, 1704, 1703
1151, 1665, 1666, 1705, 1704
1152, 1666, 1667, 1706, 1705
1153, 1667, 1668, 1707, 1706
1154, 1668, 1669, 1708, 1707
1155, 1669, 1670, 1709, 1708
1156, 1670, 1671, 1710, 1709
1157, 1671, 1672, 1711, 1710
1158, 1672, 1673, 1712, 1711
1159, 1673, 1674, 1713, 1712
1160, 1674,   75,   76, 1713
1161,  376, 1675, 1714,  375
1162, 1675, 1676, 1715, 1714
1163, 1676, 1677, 1716, 1715
1164, 1677, 1678, 1717, 1716
1165, 1678, 1679, 1718, 1717
1166, 1679, 1680, 1719, 1718
1167, 1680, 1681, 1720, 1719
1168, 1681, 1682, 1721, 1720
1169, 1682, 1683, 1722, 1721
1170, 1683, 1684, 1723, 1722
1171, 1684, 1685, 1724, 1723
1172, 1685, 1686, 1725, 1724
1173, 1686, 1687, 1726, 1725
1174, 1687, 1688, 1727, 1726
1175, 1688, 1689, 1728, 1727
1176, 1689, 1690, 1729, 1728
1177, 1690, 1691, 1730, 1729
1178, 1691, 1692, 1731, 1730
1179, 1692, 1693, 1732, 1731
1180, 1693, 1694, 1733, 1732
1181, 1694, 1695, 1734, 1733
1182, 1695, 1696, 1735, 1734
1183, 1696, 1697, 1736, 1735
1184, 1697, 1698, 1737, 1736
1185, 1698, 1699, 1738, 1737
1186, 1699, 1700, 1739, 1738
1187, 1700, 1701, 1740, 1739
1188, 1701, 1702, 1741, 1740
1189, 1702, 1703, 1742, 1741
1190, 1703, 1704, 1743, 1742
1191, 1704, 1705, 1744, 1743
1192, 1705, 1706, 1745, 1744
1193, 1706, 1707, 1746, 1745
1194, 1707, 1708, 1747, 1746
1195, 1708, 1709, 1748, 1747
1196, 1709, 1710, 1749, 1748
1197, 1710, 1711, 1750, 1749
1198, 1711, 1712, 1751, 1750
1199, 1712, 1713, 1752, 1751
1200, 1713,   76,   77, 1752
1201,  375, 1714, 1753,  374
1202, 1714, 1715, 1754, 1753
1203, 1715, 1716, 1755, 1754
1204, 1716, 1717, 1756, 1755
1205, 1717, 1718, 1757, 1756
1206, 1718, 1719, 1758, 1757
1207, 1719, 1720, 1759, 1758
1208, 1720, 1721, 1760, 1759
1209, 1721, 1722, 1761, 1760
1210, 1722, 1723, 1762, 1761
1211, 1723, 1724, 1763, 1762
1212, 1724, 1725, 1764, 1763
1213, 1725, 1726, 1765, 1764
1214, 1726, 1727, 1766, 1765
1215, 1727, 1728, 1767, 1766
1216, 1728, 1729, 1768, 1767
1217, 1729, 1730, 1769, 1768
1218, 1730, 1731, 1770, 1769
1219, 1731, 1732, 1771, 1770
1220, 1732, 1733, 1772, 1771
1221, 1733, 1734, 1773, 1772
1222, 1734, 1735, 1774, 1773
1223, 1735, 1736, 1775, 1774
1224, 1736, 1737, 1776, 1775
1225, 1737, 1738, 1777, 1776
1226, 1738, 1739, 1778, 1777
1227, 1739, 1740, 1779, 1778
1228, 1740, 1741, 1780, 1779
1229, 1741, 1742, 1781, 1780
1230, 1742, 1743, 1782, 1781
1231, 1743, 1744, 1783, 1782
1232, 1744, 1745, 1784, 1783
1233, 1745, 1746, 1785, 1784
1234, 1746, 1747, 1786, 1785
1235, 1747, 1748, 1787, 1786
1236, 1748, 1749, 1788, 1787
1237, 1749, 1750, 1789, 1788
1238, 1750, 1751, 1790, 1789
1239, 1751, 1752, 1791, 1790
1240, 1752,   77,   78, 1791
1241,  374, 1753, 1792,  373
1242, 1753, 1754, 1793, 1792
1243, 1754, 1755, 1794, 1793
1244, 1755, 1756, 1795, 1794
1245, 1756, 1757, 1796, 1795
1246, 1757, 1758, 1797, 1796
1247, 1758, 1759, 1798, 1797
1248, 1759, 1760, 1799, 1798
1249, 1760, 1761, 1800, 1799
1250, 1761, 1762, 1801, 1800
1251, 1762, 1763, 1802, 1801
1252, 1763, 1764, 1803, 1802
1253, 1764, 1765, 1804, 1803
1254, 1765, 1766, 1805, 1804
1255, 1766, 1767, 1806, 1805
1256, 1767, 1768, 1807, 1806
1257, 1768, 1769, 1808, 1807
1258, 1769, 1770, 1809, 1808
1259, 1770, 1771, 1810, 1809
1260, 1771, 1772, 1811, 1810
1261, 1772, 1773, 1812, 1811
1262, 1773, 1774, 1813, 1812
1263, 1774, 1775, 1814, 1813
1264, 1775, 1776, 1815, 1814
1265, 1776, 1777, 1816, 1815
1266, 1777, 1778, 1817, 1816
1267, 1778, 1779, 1818, 1817
1268, 1779, 1780, 1819, 1818
1269, 1780, 1781, 1820, 1819
1270, 1781, 1782, 1821, 1820
1271, 1782, 1783, 1822, 1821
1272, 1783, 1784, 1823, 1822
1273, 1784, 1785, 1824, 1823
1274, 1785, 1786, 1825, 1824
1275, 1786, 1787, 1826, 1825
1276, 1787, 1788, 1827, 1826
1277, 1788, 1789, 1828, 1827
1278, 1789, 1790, 1829, 1828
1279, 1790, 1791, 1830, 1829
1280, 1791,   78,   79, 1830
1281,  373, 1792, 1831,  372
1282, 1792, 1793, 1832, 1831
1283, 1793, 1794, 1833, 1832
1284, 1794, 1795, 1834, 1833
1285, 1795, 1796, 1835, 1834
1286, 1796, 1797, 1836, 1835
1287, 1797, 1798, 1837, 1836
1288, 1798, 1799, 1838, 1837
1289, 1799, 1800, 1839, 1838
1290, 1800, 1801, 1840, 1839
1291, 1801, 1802, 1841, 1840
1292, 1802, 1803, 1842, 1841
1293, 1803, 1804, 1843, 1842
1294, 1804, 1805, 1844, 1843
1295, 1805, 1806, 1845, 1844
1296, 1806, 1807, 1846, 1845
1297, 1807, 1808, 1847, 1846
1298, 1808, 1809, 1848, 1847
1299, 1809, 1810, 1849, 1848
1300, 1810, 1811, 1850, 1849
1301, 1811, 1812, 1851, 1850
1302, 1812, 1813, 1852, 1851
1303, 1813, 1814, 1853, 1852
1304, 1814, 1815, 1854, 1853
1305, 1815, 1816, 1855, 1854
1306, 1816, 1817, 1856, 1855
1307, 1817, 1818, 1857, 1856
1308, 1818, 1819, 1858, 1857
1309, 1819, 1820, 1859, 1858
1310, 1820, 1821, 1860, 1859
1311, 1821, 1822, 1861, 1860
1312, 1822, 1823, 1862, 1861
1313, 1823, 1824, 1863, 1862
1314, 1824, 1825, 1864, 1863
1315, 1825, 1826, 1865, 1864
1316, 1826, 1827, 1866, 1865
1317, 1827, 1828, 1867, 1866
1318, 1828, 1829, 1868, 1867
1319, 1829, 1830, 1869, 1868
1320, 1830,   79,   80, 1869
1321,  372, 1831, 1870,  371
1322, 1831, 1832, 1871, 1870
1323, 1832, 1833, 1872, 1871
1324, 1833, 1834, 1873, 1872
1325, 1834, 1835, 1874, 1873
1326, 1835, 1836, 1875, 1874
1327, 1836, 1837, 1876, 1875
1328, 1837, 1838, 1877, 1876
1329, 1838, 1839, 1878, 1877
1330, 1839, 1840, 1879, 1878
1331, 1840, 1841, 1880, 1879
1332, 1841, 1842, 1881, 1880
1333, 1842, 1843, 1882, 1881
1334, 1843, 1844, 1883, 1882
1335, 1844, 1845, 1884, 1883
1336, 1845, 1846, 1885, 1884
1337, 1846, 1847, 1886, 1885
1338, 1847, 1848, 1887, 1886
1339, 1848, 1849, 1888, 1887
1340, 1849, 1850, 1889, 1888
1341, 1850, 1851, 1890, 1889
1342, 1851, 1852, 1891, 1890
1343, 1852, 1853, 1892, 1891
1344, 1853, 1854, 1893, 1892
1345, 1854, 1855, 1894, 1893
1346, 1855, 1856, 1895, 1894
1347, 1856, 1857, 1896, 1895
1348, 1857, 1858, 1897, 1896
1349, 1858, 1859, 1898, 1897
1350, 1859, 1860, 1899, 1898
1351, 1860, 1861, 1900, 1899
1352, 1861, 1862, 1901, 1900
1353, 1862, 1863, 1902, 1901
1354, 1863, 1864, 1903, 1902
1355, 1864, 1865, 1904, 1903
1356, 1865, 1866, 1905, 1904
1357, 1866, 1867, 1906, 1905
1358, 1867, 1868, 1907, 1906
1359, 1868, 1869, 1908, 1907
1360, 1869,   80,   81, 1908
1361,  371, 1870, 1909,  370
1362, 1870, 1871, 1910, 1909
1363, 1871, 1872, 1911, 1910
1364, 1872, 1873, 1912, 1911
1365, 1873, 1874, 1913, 1912
1366, 1874, 1875, 1914, 1913
1367, 1875, 1876, 1915, 1914
1368, 1876, 1877, 1916, 1915
1369, 1877, 1878, 1917, 1916
1370, 1878, 1879, 1918, 1917
1371, 1879, 1880, 1919, 1918
1372, 1880, 1881, 1920, 1919
1373, 1881, 1882, 1921, 1920
1374, 1882, 1883, 1922, 1921
1375, 1883, 1884, 1923, 1922
1376, 1884, 1885, 1924, 1923
1377, 1885, 1886, 1925, 1924
1378, 1886, 1887, 1926, 1925
1379, 1887, 1888, 1927, 1926
1380, 1888, 1889, 1928, 1927
1381, 1889, 1890, 1929, 1928
1382, 1890, 1891, 1930, 1929
1383, 1891, 1892, 1931, 1930
1384, 1892, 1893, 1932, 1931
1385, 1893, 1894, 1933, 1932
1386, 1894, 1895, 1934, 1933
1387, 1895, 1896, 1935, 1934
1388, 1896, 1897, 1936, 1935
1389, 1897, 1898, 1937, 1936
1390, 1898, 1899, 1938, 1937
1391, 1899, 1900, 1939, 1938
1392, 1900, 1901, 1940, 1939
1393, 1901, 1902, 1941, 1940
1394, 1902, 1903, 1942, 1941
1395, 1903, 1904, 1943, 1942
1396, 1904, 1905, 1944, 1943
1397, 1905, 1906, 1945, 1944
1398, 1906, 1907, 1946, 1945
1399, 1907, 1908, 1947, 1946
1400, 1908,   81,   82, 1947
1401,  370, 1909, 1948,  369
1402, 1909, 1910, 1949, 1948
1403, 1910, 1911, 1950, 1949
1404, 1911, 1912, 1951, 1950
1405, 1912, 1913, 1952, 1951
1406, 1913, 1914, 1953, 1952
1407, 1914, 1915, 1954, 1953
1408, 1915, 1916, 1955, 1954
1409, 1916, 1917, 1956, 1955
1410, 1917, 1918, 1957, 1956
1411, 1918, 1919, 1958, 1957
1412, 1919, 1920, 1959, 1958
1413, 1920, 1921, 1960, 1959
1414, 1921, 1922, 1961, 1960
1415, 1922, 1923, 1962, 1961
1416, 1923, 1924, 1963, 1962
1417, 1924, 1925, 1964, 1963
1418, 1925, 1926, 1965, 1964
1419, 1926, 1927, 1966, 1965
1420, 1927, 1928, 1967, 1966
1421, 1928, 1929, 1968, 1967
1422, 1929, 1930, 1969, 1968
1423, 1930, 1931, 1970, 1969
1424, 1931, 1932, 1971, 1970
1425, 1932, 1933, 1972, 1971
1426, 1933, 1934, 1973, 1972
1427, 1934, 1935, 1974, 1973
1428, 1935, 1936, 1975, 1974
1429, 1936, 1937, 1976, 1975
1430, 1937, 1938, 1977, 1976
1431, 1938, 1939, 1978, 1977
1432, 1939, 1940, 1979, 1978
1433, 1940, 1941, 1980, 1979
1434, 1941, 1942, 1981, 1980
1435, 1942, 1943, 1982, 1981
1436, 1943, 1944, 1983, 1982
1437, 1944, 1945, 1984, 1983
1438, 1945, 1946, 1985, 1984
1439, 1946, 1947, 1986, 1985
1440, 1947,   82,   83, 1986
1441,  369, 1948, 1987,  368
1442, 1948, 1949, 1988, 1987
1443, 1949, 1950, 1989, 1988
1444, 1950, 1951, 1990, 1989
1445, 1951, 1952, 1991, 1990
1446, 1952, 1953, 1992, 1991
1447, 1953, 1954, 1993, 1992
1448, 1954, 1955, 1994, 1993
1449, 1955, 1956, 1995, 1994
1450, 1956, 1957, 1996, 1995
1451, 1957, 1958, 1997, 1996
1452, 1958, 1959, 1998, 1997
1453, 1959, 1960, 1999, 1998
1454, 1960, 1961, 2000, 1999
1455, 1961, 1962, 2001, 2000
1456, 1962, 1963, 2002, 2001
1457, 1963, 1964, 2003, 2002
1458, 1964, 1965, 2004, 2003
1459, 1965, 1966, 2005, 2004
1460, 1966, 1967, 2006, 2005
1461, 1967, 1968, 2007, 2006
1462, 1968, 1969, 2008, 2007
1463, 1969, 1970, 2009, 2008
1464, 1970, 1971, 2010, 2009
1465, 1971, 1972, 2011, 2010
1466, 1972, 1973, 2012, 2011
1467, 1973, 1974, 2013, 2012
1468, 1974, 1975, 2014, 2013
1469, 1975, 1976, 2015, 2014
1470, 1976, 1977, 2016, 2015
1471, 1977, 1978, 2017, 2016
1472, 1978, 1979, 2018, 2017
1473, 1979, 1980, 2019, 2018
1474, 1980, 1981, 2020, 2019
1475, 1981, 1982, 2021, 2020
1476, 1982, 1983, 2022, 2021
1477, 1983, 1984, 2023, 2022
1478, 1984, 1985, 2024, 2023
1479, 1985, 1986, 2025, 2024
1480, 1986,   83,   84, 2025
1481,  368, 1987, 2026,  367
1482, 1987, 1988, 2027, 2026
1483, 1988, 1989, 2028, 2027
1484, 1989, 1990, 2029, 2028
1485, 1990, 1991, 2030, 2029
1486, 1991, 1992, 2031, 2030
1487, 1992, 1993, 2032, 2031
1488, 1993, 1994, 2033, 2032
1489, 1994, 1995, 2034, 2033
1490, 1995, 1996, 2035, 2034
1491, 1996, 1997, 2036, 2035
1492, 1997, 1998, 2037, 2036
1493, 1998, 1999, 2038, 2037
1494, 1999, 2000, 2039, 2038
1495, 2000, 2001, 2040, 2039
1496, 2001, 2002, 2041, 2040
1497, 2002, 2003, 2042, 2041
1498, 2003, 2004, 2043, 2042
1499, 2004, 2005, 2044, 2043
1500, 2005, 2006, 2045, 2044
1501, 2006, 2007, 2046, 2045
1502, 2007, 2008, 2047, 2046
1503, 2008, 2009, 2048, 2047
1504, 2009, 2010, 2049, 2048
1505, 2010, 2011, 2050, 2049
1506, 2011, 2012, 2051, 2050
1507, 2012, 2013, 2052, 2051
1508, 2013, 2014, 2053, 2052
1509, 2014, 2015, 2054, 2053
1510, 2015, 2016, 2055, 2054
1511, 2016, 2017, 2056, 2055
1512, 2017, 2018, 2057, 2056
1513, 2018, 2019, 2058, 2057
1514, 2019, 2020, 2059, 2058
1515, 2020, 2021, 2060, 2059
1516, 2021, 2022, 2061, 2060
1517, 2022, 2023, 2062, 2061
1518, 2023, 2024, 2063, 2062
1519, 2024, 2025, 2064, 2063
1520, 2025,   84,   85, 2064
1521,  367, 2026, 2065,  366
1522, 2026, 2027, 2066, 2065
1523, 2027, 2028, 2067, 2066
1524, 2028, 2029, 2068, 2067
1525, 2029, 2030, 2069, 2068
1526, 2030, 2031, 2070, 2069
1527, 2031, 2032, 2071, 2070
1528, 2032, 2033, 2072, 2071
1529, 2033, 2034, 2073, 2072
1530, 2034, 2035, 2074, 2073
1531, 2035, 2036, 2075, 2074
1532, 2036, 2037, 2076, 2075
1533, 2037, 2038, 2077, 2076
1534, 2038, 2039, 2078, 2077
1535, 2039, 2040, 2079, 2078
1536, 2040, 2041, 2080, 2079
1537, 2041, 2042, 2081, 2080
1538, 2042, 2043, 2082, 2081
1539, 2043, 2044, 2083, 2082
1540, 2044, 2045, 2084, 2083
1541, 2045, 2046, 2085, 2084
1542, 2046, 2047, 2086, 2085
1543, 2047, 2048, 2087, 2086
1544, 2048, 2049, 2088, 2087
1545, 2049, 2050, 2089, 2088
1546, 2050, 2051, 2090, 2089
1547, 2051, 2052, 2091, 2090
1548, 2052, 2053, 2092, 2091
1549, 2053, 2054, 2093, 2092
1550, 2054, 2055, 2094, 2093
1551, 2055, 2056, 2095, 2094
1552, 2056, 2057, 2096, 2095
1553, 2057, 2058, 2097, 2096
1554, 2058, 2059, 2098, 2097
1555, 2059, 2060, 2099, 2098
1556, 2060, 2061, 2100, 2099
1557, 2061, 2062, 2101, 2100
1558, 2062, 2063, 2102, 2101
1559, 2063, 2064, 2103, 2102
1560, 2064,   85,   86, 2103
1561,  366, 2065, 2104,  365
1562, 2065, 2066, 2105, 2104
1563, 2066, 2067, 2106, 2105
1564, 2067, 2068, 2107, 2106
1565, 2068, 2069, 2108, 2107
1566, 2069, 2070, 2109, 2108
1567, 2070, 2071, 2110, 2109
1568, 2071, 2072, 2111, 2110
1569, 2072, 2073, 2112, 2111
1570, 2073, 2074, 2113, 2112
1571, 2074, 2075, 2114, 2113
1572, 2075, 2076, 2115, 2114
1573, 2076, 2077, 2116, 2115
1574, 2077, 2078, 2117, 2116
1575, 2078, 2079, 2118, 2117
1576, 2079, 2080, 2119, 2118
1577, 2080, 2081, 2120, 2119
1578, 2081, 2082, 2121, 2120
1579, 2082, 2083, 2122, 2121
1580, 2083, 2084, 2123, 2122
1581, 2084, 2085, 2124, 2123
1582, 2085, 2086, 2125, 2124
1583, 2086, 2087, 2126, 2125
1584, 2087, 2088, 2127, 2126
1585, 2088, 2089, 2128, 2127
1586, 2089, 2090, 2129, 2128
1587, 2090, 2091, 2130, 2129
1588, 2091, 2092, 2131, 2130
1589, 2092, 2093, 2132, 2131
1590, 2093, 2094, 2133, 2132
1591, 2094, 2095, 2134, 2133
1592, 2095, 2096, 2135, 2134
1593, 2096, 2097, 2136, 2135
1594, 2097, 2098, 2137, 2136
1595, 2098, 2099, 2138, 2137
1596, 2099, 2100, 2139, 2138
1597, 2100, 2101, 2140, 2139
1598, 2101, 2102, 2141, 2140
1599, 2102, 2103, 2142, 2141
1600, 2103,   86,   87, 2142
1601,  365, 2104, 2143,  364
1602, 2104, 2105, 2144, 2143
1603, 2105, 2106, 2145, 2144
1604, 2106, 2107, 2146, 2145
1605, 2107, 2108, 2147, 2146
1606, 2108, 2109, 2148, 2147
1607, 2109, 2110, 2149, 2148
1608, 2110, 2111, 2150, 2149
1609, 2111, 2112, 2151, 2150
1610, 2112, 2113, 2152, 2151
1611, 2113, 2114, 2153, 2152
1612, 2114, 2115, 2154, 2153
1613, 2115, 2116, 2155, 2154
1614, 2116, 2117, 2156, 2155
1615, 2117, 2118, 2157, 2156
1616, 2118, 2119, 2158, 2157
1617, 2119, 2120, 2159, 2158
1618, 2120, 2121, 2160, 2159
1619, 2121, 2122, 2161, 2160
1620, 2122, 2123, 2162, 2161
1621, 2123, 2124, 2163, 2162
1622, 2124, 2125, 2164, 2163
1623, 2125, 2126, 2165, 2164
1624, 2126, 2127, 2166, 2165
1625, 2127, 2128, 2167, 2166
1626, 2128, 2129, 2168, 2167
1627, 2129, 2130, 2169, 2168
1628, 2130, 2131, 2170, 2169
1629, 2131, 2132, 2171, 2170
1630, 2132, 2133, 2172, 2171
1631, 2133, 2134, 2173, 2172
1632, 2134, 2135, 2174, 2173
1633, 2135, 2136, 2175, 2174
1634, 2136, 2137, 2176, 2175
1635, 2137, 2138, 2177, 2176
1636, 2138, 2139, 2178, 2177
1637, 2139, 2140, 2179, 2178
1638, 2140, 2141, 2180, 2179
1639, 2141, 2142, 2181, 2180
1640, 2142,   87,   88, 2181
1641,  364, 2143, 2182,  363
1642, 2143, 2144, 2183, 2182
1643, 2144, 2145, 2184, 2183
1644, 2145, 2146, 2185, 2184
1645, 2146, 2147, 2186, 2185
1646, 2147, 2148, 2187, 2186
1647, 2148, 2149, 2188, 2187
1648, 2149, 2150, 2189, 2188
1649, 2150, 2151, 2190, 2189
1650, 2151, 2152, 2191, 2190
1651, 2152, 2153, 2192, 2191
1652, 2153, 2154, 2193, 2192
1653, 2154, 2155, 2194, 2193
1654, 2155, 2156, 2195, 2194
1655, 2156, 2157, 2196, 2195
1656, 2157, 2158, 2197, 2196
1657, 2158, 2159, 2198, 2197
1658, 2159, 2160, 2199, 2198
1659, 2160, 2161, 2200, 2199
1660, 2161, 2162, 2201, 2200
1661, 2162, 2163, 2202, 2201
1662, 2163, 2164, 2203, 2202
1663, 2164, 2165, 2204, 2203
1664, 2165, 2166, 2205, 2204
1665, 2166, 2167, 2206, 2205
1666, 2167, 2168, 2207, 2206
1667, 2168, 2169, 2208, 2207
1668, 2169, 2170, 2209, 2208
1669, 2170, 2171, 2210, 2209
1670, 2171, 2172, 2211, 2210
1671, 2172, 2173, 2212, 2211
1672, 2173, 2174, 2213, 2212
1673, 2174, 2175, 2214, 2213
1674, 2175, 2176, 2215, 2214
1675, 2176, 2177, 2216, 2215
1676, 2177, 2178, 2217, 2216
1677, 2178, 2179, 2218, 2217
1678, 2179, 2180, 2219, 2218
1679, 2180, 2181, 2220, 2219
1680, 2181,   88,   89, 2220
1681,  363, 2182, 2221,  362
1682, 2182, 2183, 2222, 2221
1683, 2183, 2184, 2223, 2222
1684, 2184, 2185, 2224, 2223
1685, 2185, 2186, 2225, 2224
1686, 2186, 2187, 2226, 2225
1687, 2187, 2188, 2227, 2226
1688, 2188, 2189, 2228, 2227
1689, 2189, 2190, 2229, 2228
1690, 2190, 2191, 2230, 2229
1691, 2191, 2192, 2231, 2230
1692, 2192, 2193, 2232, 2231
1693, 2193, 2194, 2233, 2232
1694, 2194, 2195, 2234, 2233
1695, 2195, 2196, 2235, 2234
1696, 2196, 2197, 2236, 2235
1697, 2197, 2198, 2237, 2236
1698, 2198, 2199, 2238, 2237
1699, 2199, 2200, 2239, 2238
1700, 2200, 2201, 2240, 2239
1701, 2201, 2202, 2241, 2240
1702, 2202, 2203, 2242, 2241
1703, 2203, 2204, 2243, 2242
1704, 2204, 2205, 2244, 2243
1705, 2205, 2206, 2245, 2244
1706, 2206, 2207, 2246, 2245
1707, 2207, 2208, 2247, 2246
1708, 2208, 2209, 2248, 2247
1709, 2209, 2210, 2249, 2248
1710, 2210, 2211, 2250, 2249
1711, 2211, 2212, 2251, 2250
1712, 2212, 2213, 2252, 2251
1713, 2213, 2214, 2253, 2252
1714, 2214, 2215, 2254, 2253
1715, 2215, 2216, 2255, 2254
1716, 2216, 2217, 2256, 2255
1717, 2217, 2218, 2257, 2256
1718, 2218, 2219, 2258, 2257
1719, 2219, 2220, 2259, 2258
1720, 2220,   89,   90, 2259
1721,  362, 2221, 2260,  361
1722, 2221, 2222, 2261, 2260
1723, 2222, 2223, 2262, 2261
1724, 2223, 2224, 2263, 2262
1725, 2224, 2225, 2264, 2263
1726, 2225, 2226, 2265, 2264
1727, 2226, 2227, 2266, 2265
1728, 2227, 2228, 2267, 2266
1729, 2228, 2229, 2268, 2267
1730, 2229, 2230, 2269, 2268
1731, 2230, 2231, 2270, 2269
1732, 2231, 2232, 2271, 2270
1733, 2232, 2233, 2272, 2271
1734, 2233, 2234, 2273, 2272
1735, 2234, 2235, 2274, 2273
1736, 2235, 2236, 2275, 2274
1737, 2236, 2237, 2276, 2275
1738, 2237, 2238, 2277, 2276
1739, 2238, 2239, 2278, 2277
1740, 2239, 2240, 2279, 2278
1741, 2240, 2241, 2280, 2279
1742, 2241, 2242, 2281, 2280
1743, 2242, 2243, 2282, 2281
1744, 2243, 2244, 2283, 2282
1745, 2244, 2245, 2284, 2283
1746, 2245, 2246, 2285, 2284
1747, 2246, 2247, 2286, 2285
1748, 2247, 2248, 2287, 2286
1749, 2248, 2249, 2288, 2287
1750, 2249, 2250, 2289, 2288
1751, 2250, 2251, 2290, 2289
1752, 2251, 2252, 2291, 2290
1753, 2252, 2253, 2292, 2291
1754, 2253, 2254, 2293, 2292
1755, 2254, 2255, 2294, 2293
1756, 2255, 2256, 2295, 2294
1757, 2256, 2257, 2296, 2295
1758, 2257, 2258, 2297, 2296
1759, 2258, 2259, 2298, 2297
1760, 2259,   90,   91, 2298
1761,  361, 2260, 2299,  360
1762, 2260, 2261, 2300, 2299
1763, 2261, 2262, 2301, 2300
1764, 2262, 2263, 2302, 2301
1765, 2263, 2264, 2303, 2302
1766, 2264, 2265, 2304, 2303
1767, 2265, 2266, 2305, 2304
1768, 2266, 2267, 2306, 2305
1769, 2267, 2268, 2307, 2306
1770, 2268, 2269, 2308, 2307
1771, 2269, 2270, 2309, 2308
1772, 2270, 2271, 2310, 2309
1773, 2271, 2272, 2311, 2310
1774, 2272, 2273, 2312, 2311
1775, 2273, 2274, 2313, 2312
1776, 2274, 2275, 2314, 2313
1777, 2275, 2276, 2315, 2314
1778, 2276, 2277, 2316, 2315
1779, 2277, 2278, 2317, 2316
1780, 2278, 2279, 2318, 2317
1781, 2279, 2280, 2319, 2318
1782, 2280, 2281, 2320, 2319
1783, 2281, 2282, 2321, 2320
1784, 2282, 2283, 2322, 2321
1785, 2283, 2284, 2323, 2322
1786, 2284, 2285, 2324, 2323
1787, 2285, 2286, 2325, 2324
1788, 2286, 2287, 2326, 2325
1789, 2287, 2288, 2327, 2326
1790, 2288, 2289, 2328, 2327
1791, 2289, 2290, 2329, 2328
1792, 2290, 2291, 2330, 2329
1793, 2291, 2292, 2331, 2330
1794, 2292, 2293, 2332, 2331
1795, 2293, 2294, 2333, 2332
1796, 2294, 2295, 2334, 2333
1797, 2295, 2296, 2335, 2334
1798, 2296, 2297, 2336, 2335
1799, 2297, 2298, 2337, 2336
1800, 2298,   91,   92, 2337
1801,  360, 2299, 2338,  359
1802, 2299, 2300, 2339, 2338
1803, 2300, 2301, 2340, 2339
1804, 2301, 2302, 2341, 2340
1805, 2302, 2303, 2342, 2341
1806, 2303, 2304, 2343, 2342
1807, 2304, 2305, 2344, 2343
1808, 2305, 2306, 2345, 2344
1809, 2306, 2307, 2346, 2345
1810, 2307, 2308, 2347, 2346
1811, 2308, 2309, 2348, 2347
1812, 2309, 2310, 2349, 2348
1813, 2310, 2311, 2350, 2349
1814, 2311, 2312, 2351, 2350
1815, 2312, 2313, 2352, 2351
1816, 2313, 2314, 2353, 2352
1817, 2314, 2315, 2354, 2353
1818, 2315, 2316, 2355, 2354
1819, 2316, 2317, 2356, 2355
1820, 2317, 2318, 2357, 2356
1821, 2318, 2319, 2358, 2357
1822, 2319, 2320, 2359, 2358
1823, 2320, 2321, 2360, 2359
1824, 2321, 2322, 2361, 2360
1825, 2322, 2323, 2362, 2361
1826, 2323, 2324, 2363, 2362
1827, 2324, 2325, 2364, 2363
1828, 2325, 2326, 2365, 2364
1829, 2326, 2327, 2366, 2365
1830, 2327, 2328, 2367, 2366
1831, 2328, 2329, 2368, 2367
1832, 2329, 2330, 2369, 2368
1833, 2330, 2331, 2370, 2369
1834, 2331, 2332, 2371, 2370
1835, 2332, 2333, 2372, 2371
1836, 2333, 2334, 2373, 2372
1837, 2334, 2335, 2374, 2373
1838, 2335, 2336, 2375, 2374
1839, 2336, 2337, 2376, 2375
1840, 2337,   92,   93, 2376
1841,  359, 2338, 2377,  358
1842, 2338, 2339, 2378, 2377
1843, 2339, 2340, 2379, 2378
1844, 2340, 2341, 2380, 2379
1845, 2341, 2342, 2381, 2380
1846, 2342, 2343, 2382, 2381
1847, 2343, 2344, 2383, 2382
1848, 2344, 2345, 2384, 2383
1849, 2345, 2346, 2385, 2384
1850, 2346, 2347, 2386, 2385
1851, 2347, 2348, 2387, 2386
1852, 2348, 2349, 2388, 2387
1853, 2349, 2350, 2389, 2388
1854, 2350, 2351, 2390, 2389
1855, 2351, 2352, 2391, 2390
1856, 2352, 2353, 2392, 2391
1857, 2353, 2354, 2393, 2392
1858, 2354, 2355, 2394, 2393
1859, 2355, 2356, 2395, 2394
1860, 2356, 2357, 2396, 2395
1861, 2357, 2358, 2397, 2396
1862, 2358, 2359, 2398, 2397
1863, 2359, 2360, 2399, 2398
1864, 2360, 2361, 2400, 2399
1865, 2361, 2362, 2401, 2400
1866, 2362, 2363, 2402, 2401
1867, 2363, 2364, 2403, 2402
1868, 2364, 2365, 2404, 2403
1869, 2365, 2366, 2405, 2404
1870, 2366, 2367, 2406, 2405
1871, 2367, 2368, 2407, 2406
1872, 2368, 2369, 2408, 2407
1873, 2369, 2370, 2409, 2408
1874, 2370, 2371, 2410, 2409
1875, 2371, 2372, 2411, 2410
1876, 2372, 2373, 2412, 2411
1877, 2373, 2374, 2413, 2412
1878, 2374, 2375, 2414, 2413
1879, 2375, 2376, 2415, 2414
1880, 2376,   93,   94, 2415
1881,  358, 2377, 2416,  357
1882, 2377, 2378, 2417, 2416
1883, 2378, 2379, 2418, 2417
1884, 2379, 2380, 2419, 2418
1885, 2380, 2381, 2420, 2419
1886, 2381, 2382, 2421, 2420
1887, 2382, 2383, 2422, 2421
1888, 2383, 2384, 2423, 2422
1889, 2384, 2385, 2424, 2423
1890, 2385, 2386, 2425, 2424
1891, 2386, 2387, 2426, 2425
1892, 2387, 2388, 2427, 2426
1893, 2388, 2389, 2428, 2427
1894, 2389, 2390, 2429, 2428
1895, 2390, 2391, 2430, 2429
1896, 2391, 2392, 2431, 2430
1897, 2392, 2393, 2432, 2431
1898, 2393, 2394, 2433, 2432
1899, 2394, 2395, 2434, 2433
1900, 2395, 2396, 2435, 2434
1901, 2396, 2397, 2436, 2435
1902, 2397, 2398, 2437, 2436
1903, 2398, 2399, 2438, 2437
1904, 2399, 2400, 2439, 2438
1905, 2400, 2401, 2440, 2439
1906, 2401, 2402, 2441, 2440
1907, 2402, 2403, 2442, 2441
1908, 2403, 2404, 2443, 2442
1909, 2404, 2405, 2444, 2443
1910, 2405, 2406, 2445, 2444
1911, 2406, 2407, 2446, 2445
1912, 2407, 2408, 2447, 2446
1913, 2408, 2409, 2448, 2447
1914, 2409, 2410, 2449, 2448
1915, 2410, 2411, 2450, 2449
1916, 2411, 2412, 2451, 2450
1917, 2412, 2413, 2452, 2451
1918, 2413, 2414, 2453, 2452
1919, 2414, 2415, 2454, 2453
1920, 2415,   94,   95, 2454
1921,  357, 2416, 2455,  356
1922, 2416, 2417, 2456, 2455
1923, 2417, 2418, 2457, 2456
1924, 2418, 2419, 2458, 2457
1925, 2419, 2420, 2459, 2458
1926, 2420, 2421, 2460, 2459
1927, 2421, 2422, 2461, 2460
1928, 2422, 2423, 2462, 2461
1929, 2423, 2424, 2463, 2462
1930, 2424, 2425, 2464, 2463
1931, 2425, 2426, 2465, 2464
1932, 2426, 2427, 2466, 2465
1933, 2427, 2428, 2467, 2466
1934, 2428, 2429, 2468, 2467
1935, 2429, 2430, 2469, 2468
1936, 2430, 2431, 2470, 2469
1937, 2431, 2432, 2471, 2470
1938, 2432, 2433, 2472, 2471
1939, 2433, 2434, 2473, 2472
1940, 2434, 2435, 2474, 2473
1941, 2435, 2436, 2475, 2474
1942, 2436, 2437, 2476, 2475
1943, 2437, 2438, 2477, 2476
1944, 2438, 2439, 2478, 2477
1945, 2439, 2440, 2479, 2478
1946, 2440, 2441, 2480, 2479
1947, 2441, 2442, 2481, 2480
1948, 2442, 2443, 2482, 2481
1949, 2443, 2444, 2483, 2482
1950, 2444, 2445, 2484, 2483
1951, 2445, 2446, 2485, 2484
1952, 2446, 2447, 2486, 2485
1953, 2447, 2448, 2487, 2486
1954, 2448, 2449, 2488, 2487
1955, 2449, 2450, 2489, 2488
1956, 2450, 2451, 2490, 2489
1957, 2451, 2452, 2491, 2490
1958, 2452, 2453, 2492, 2491
1959, 2453, 2454, 2493, 2492
1960, 2454,   95,   96, 2493
1961,  356, 2455, 2494,  355
1962, 2455, 2456, 2495, 2494
1963, 2456, 2457, 2496, 2495
1964, 2457, 2458, 2497, 2496
1965, 2458, 2459, 2498, 2497
1966, 2459, 2460, 2499, 2498
1967, 2460, 2461, 2500, 2499
1968, 2461, 2462, 2501, 2500
1969, 2462, 2463, 2502, 2501
1970, 2463, 2464, 2503, 2502
1971, 2464, 2465, 2504, 2503
1972, 2465, 2466, 2505, 2504
1973, 2466, 2467, 2506, 2505
1974, 2467, 2468, 2507, 2506
1975, 2468, 2469, 2508, 2507
1976, 2469, 2470, 2509, 2508
1977, 2470, 2471, 2510, 2509
1978, 2471, 2472, 2511, 2510
1979, 2472, 2473, 2512, 2511
1980, 2473, 2474, 2513, 2512
1981, 2474, 2475, 2514, 2513
1982, 2475, 2476, 2515, 2514
1983, 2476, 2477, 2516, 2515
1984, 2477, 2478, 2517, 2516
1985, 2478, 2479, 2518, 2517
1986, 2479, 2480, 2519, 2518
1987, 2480, 2481, 2520, 2519
1988, 2481, 2482, 2521, 2520
1989, 2482, 2483, 2522, 2521
1990, 2483, 2484, 2523, 2522
1991, 2484, 2485, 2524, 2523
1992, 2485, 2486, 2525, 2524
1993, 2486, 2487, 2526, 2525
1994, 2487, 2488, 2527, 2526
1995, 2488, 2489, 2528, 2527
1996, 2489, 2490, 2529, 2528
1997, 2490, 2491, 2530, 2529
1998, 2491, 2492, 2531, 2530
1999, 2492, 2493, 2532, 2531
2000, 2493,   96,   97, 2532
2001,  355, 2494, 2533,  354
2002, 2494, 2495, 2534, 2533
2003, 2495, 2496, 2535, 2534
2004, 2496, 2497, 2536, 2535
2005, 2497, 2498, 2537, 2536
2006, 2498, 2499, 2538, 2537
2007, 2499, 2500, 2539, 2538
2008, 2500, 2501, 2540, 2539
2009, 2501, 2502, 2541, 2540
2010, 2502, 2503, 2542, 2541
2011, 2503, 2504, 2543, 2542
2012, 2504, 2505, 2544, 2543
2013, 2505, 2506, 2545, 2544
2014, 2506, 2507, 2546, 2545
2015, 2507, 2508, 2547, 2546
2016, 2508, 2509, 2548, 2547
2017, 2509, 2510, 2549, 2548
2018, 2510, 2511, 2550, 2549
2019, 2511, 2512, 2551, 2550
2020, 2512, 2513, 2552, 2551
2021, 2513, 2514, 2553, 2552
2022, 2514, 2515, 2554, 2553
2023, 2515, 2516, 2555, 2554
2024, 2516, 2517, 2556, 2555
2025, 2517, 2518, 2557, 2556
2026, 2518, 2519, 2558, 2557
2027, 2519, 2520, 2559, 2558
2028, 2520, 2521, 2560, 2559
2029, 2521, 2522, 2561, 2560
2030, 2522, 2523, 2562, 2561
2031, 2523, 2524, 2563, 2562
2032, 2524, 2525, 2564, 2563
2033, 2525, 2526, 2565, 2564
2034, 2526, 2527, 2566, 2565
2035, 2527, 2528, 2567, 2566
2036, 2528, 2529, 2568, 2567
2037, 2529, 2530, 2569, 2568
2038, 2530, 2531, 2570, 2569
2039, 2531, 2532, 2571, 2570
2040, 2532,   97,   98, 2571
2041,  354, 2533, 2572,  353
2042, 2533, 2534, 2573, 2572
2043, 2534, 2535, 2574, 2573
2044, 2535, 2536, 2575, 2574
2045, 2536, 2537, 2576, 2575
2046, 2537, 2538, 2577, 2576
2047, 2538, 2539, 2578, 2577
2048, 2539, 2540, 2579, 2578
2049, 2540, 2541, 2580, 2579
2050, 2541, 2542, 2581, 2580
2051, 2542, 2543, 2582, 2581
2052, 2543, 2544, 2583, 2582
2053, 2544, 2545, 2584, 2583
2054, 2545, 2546, 2585, 2584
2055, 2546, 2547, 2586, 2585
2056, 2547, 2548, 2587, 2586
2057, 2548, 2549, 2588, 2587
2058, 2549, 2550, 2589, 2588
2059, 2550, 2551, 2590, 2589
2060, 2551, 2552, 2591, 2590
2061, 2552, 2553, 2592, 2591
2062, 2553, 2554, 2593, 2592
2063, 2554, 2555, 2594, 2593
2064, 2555, 2556, 2595, 2594
2065, 2556, 2557, 2596, 2595
2066, 2557, 2558, 2597, 2596
2067, 2558, 2559, 2598, 2597
2068, 2559, 2560, 2599, 2598
2069, 2560, 2561, 2600, 2599
2070, 2561, 2562, 2601, 2600
2071, 2562, 2563, 2602, 2601
2072, 2563, 2564, 2603, 2602
2073, 2564, 2565, 2604, 2603
2074, 2565, 2566, 2605, 2604
2075, 2566, 2567, 2606, 2605
2076, 2567, 2568, 2607, 2606
2077, 2568, 2569, 2608, 2607
2078, 2569, 2570, 2609, 2608
2079, 2570, 2571, 2610, 2609
2080, 2571,   98,   99, 2610
2081,  353, 2572, 2611,  352
2082, 2572, 2573, 2612, 2611
2083, 2573, 2574, 2613, 2612
2084, 2574, 2575, 2614, 2613
2085, 2575, 2576, 2615, 2614
2086, 2576, 2577, 2616, 2615
2087, 2577, 2578, 2617, 2616
2088, 2578, 2579, 2618, 2617
2089, 2579, 2580, 2619, 2618
2090, 2580, 2581, 2620, 2619
2091, 2581, 2582, 2621, 2620
2092, 2582, 2583, 2622, 2621
2093, 2583, 2584, 2623, 2622
2094, 2584, 2585, 2624, 2623
2095, 2585, 2586, 2625, 2624
2096, 2586, 2587, 2626, 2625
2097, 2587, 2588, 2627, 2626
2098, 2588, 2589, 2628, 2627
2099, 2589, 2590, 2629, 2628
2100, 2590, 2591, 2630, 2629
2101, 2591, 2592, 2631, 2630
2102, 2592, 2593, 2632, 2631
2103, 2593, 2594, 2633, 2632
2104, 2594, 2595, 2634, 2633
2105, 2595, 2596, 2635, 2634
2106, 2596, 2597, 2636, 2635
2107, 2597, 2598, 2637, 2636
2108, 2598, 2599, 2638, 2637
2109, 2599, 2600, 2639, 2638
2110, 2600, 2601, 2640, 2639
2111, 2601, 2602, 2641, 2640
2112, 2602, 2603, 2642, 2641
2113, 2603, 2604, 2643, 2642
2114, 2604, 2605, 2644, 2643
2115, 2605, 2606, 2645, 2644
2116, 2606, 2607, 2646, 2645
2117, 2607, 2608, 2647, 2646
2118, 2608, 2609, 2648, 2647
2119, 2609, 2610, 2649, 2648
2120, 2610,   99,  100, 2649
2121,  352, 2611, 2650,  351
2122, 2611, 2612, 2651, 2650
2123, 2612, 2613, 2652, 2651
2124, 2613, 2614, 2653, 2652
2125, 2614, 2615, 2654, 2653
2126, 2615, 2616, 2655, 2654
2127, 2616, 2617, 2656, 2655
2128, 2617, 2618, 2657, 2656
2129, 2618, 2619, 2658, 2657
2130, 2619, 2620, 2659, 2658
2131, 2620, 2621, 2660, 2659
2132, 2621, 2622, 2661, 2660
2133, 2622, 2623, 2662, 2661
2134, 2623, 2624, 2663, 2662
2135, 2624, 2625, 2664, 2663
2136, 2625, 2626, 2665, 2664
2137, 2626, 2627, 2666, 2665
2138, 2627, 2628, 2667, 2666
2139, 2628, 2629, 2668, 2667
2140, 2629, 2630, 2669, 2668
2141, 2630, 2631, 2670, 2669
2142, 2631, 2632, 2671, 2670
2143, 2632, 2633, 2672, 2671
2144, 2633, 2634, 2673, 2672
2145, 2634, 2635, 2674, 2673
2146, 2635, 2636, 2675, 2674
2147, 2636, 2637, 2676, 2675
2148, 2637, 2638, 2677, 2676
2149, 2638, 2639, 2678, 2677
2150, 2639, 2640, 2679, 2678
2151, 2640, 2641, 2680, 2679
2152, 2641, 2642, 2681, 2680
2153, 2642, 2643, 2682, 2681
2154, 2643, 2644, 2683, 2682
2155, 2644, 2645, 2684, 2683
2156, 2645, 2646, 2685, 2684
2157, 2646, 2647, 2686, 2685
2158, 2647, 2648, 2687, 2686
2159, 2648, 2649, 2688, 2687
2160, 2649,  100,  101, 2688
2161,  351, 2650, 2689,  350
2162, 2650, 2651, 2690, 2689
2163, 2651, 2652, 2691, 2690
2164, 2652, 2653, 2692, 2691
2165, 2653, 2654, 2693, 2692
2166, 2654, 2655, 2694, 2693
2167, 2655, 2656, 2695, 2694
2168, 2656, 2657, 2696, 2695
2169, 2657, 2658, 2697, 2696
2170, 2658, 2659, 2698, 2697
2171, 2659, 2660, 2699, 2698
2172, 2660, 2661, 2700, 2699
2173, 2661, 2662, 2701, 2700
2174, 2662, 2663, 2702, 2701
2175, 2663, 2664, 2703, 2702
2176, 2664, 2665, 2704, 2703
2177, 2665, 2666, 2705, 2704
2178, 2666, 2667, 2706, 2705
2179, 2667, 2668, 2707, 2706
2180, 2668, 2669, 2708, 2707
2181, 2669, 2670, 2709, 2708
2182, 2670, 2671, 2710, 2709
2183, 2671, 2672, 2711, 2710
2184, 2672, 2673, 2712, 2711
2185, 2673, 2674, 2713, 2712
2186, 2674, 2675, 2714, 2713
2187, 2675, 2676, 2715, 2714
2188, 2676, 2677, 2716, 2715
2189, 2677, 2678, 2717, 2716
2190, 2678, 2679, 2718, 2717
2191, 2679, 2680, 2719, 2718
2192, 2680, 2681, 2720, 2719
2193, 2681, 2682, 2721, 2720
2194, 2682, 2683, 2722, 2721
2195, 2683, 2684, 2723, 2722
2196, 2684, 2685, 2724, 2723
2197, 2685, 2686, 2725, 2724
2198, 2686, 2687, 2726, 2725
2199, 2687, 2688, 2727, 2726
2200, 2688,  101,  102, 2727
2201,  350, 2689, 2728,  349
2202, 2689, 2690, 2729, 2728
2203, 2690, 2691, 2730, 2729
2204, 2691, 2692, 2731, 2730
2205, 2692, 2693, 2732, 2731
2206, 2693, 2694, 2733, 2732
2207, 2694, 2695, 2734, 2733
2208, 2695, 2696, 2735, 2734
2209, 2696, 2697, 2736, 2735
2210, 2697, 2698, 2737, 2736
2211, 2698, 2699, 2738, 2737
2212, 2699, 2700, 2739, 2738
2213, 2700, 2701, 2740, 2739
2214, 2701, 2702, 2741, 2740
2215, 2702, 2703, 2742, 2741
2216, 2703, 2704, 2743, 2742
2217, 2704, 2705, 2744, 2743
2218, 2705, 2706, 2745, 2744
2219, 2706, 2707, 2746, 2745
2220, 2707, 2708, 2747, 2746
2221, 2708, 2709, 2748, 2747
2222, 2709, 2710, 2749, 2748
2223, 2710, 2711, 2750, 2749
2224, 2711, 2712, 2751, 2750
2225, 2712, 2713, 2752, 2751
2226, 2713, 2714, 2753, 2752
2227, 2714, 2715, 2754, 2753
2228, 2715, 2716, 2755, 2754
2229, 2716, 2717, 2756, 2755
2230, 2717, 2718, 2757, 2756
2231, 2718, 2719, 2758, 2757
2232, 2719, 2720, 2759, 2758
2233, 2720, 2721, 2760, 2759
2234, 2721, 2722, 2761, 2760
2235, 2722, 2723, 2762, 2761
2236, 2723, 2724, 2763, 2762
2237, 2724, 2725, 2764, 2763
2238, 2725, 2726, 2765, 2764
2239, 2726, 2727, 2766, 2765
2240, 2727,  102,  103, 2766
2241,  349, 2728, 2767,  348
2242, 2728, 2729, 2768, 2767
2243, 2729, 2730, 2769, 2768
2244, 2730, 2731, 2770, 2769
2245, 2731, 2732, 2771, 2770
2246, 2732, 2733, 2772, 2771
2247, 2733, 2734, 2773, 2772
2248, 2734, 2735, 2774, 2773
2249, 2735, 2736, 2775, 2774
2250, 2736, 2737, 2776, 2775
2251, 2737, 2738, 2777, 2776
2252, 2738, 2739, 2778, 2777
2253, 2739, 2740, 2779, 2778
2254, 2740, 2741, 2780, 2779
2255, 2741, 2742, 2781, 2780
2256, 2742, 2743, 2782, 2781
2257, 2743, 2744, 2783, 2782
2258, 2744, 2745, 2784, 2783
2259, 2745, 2746, 2785, 2784
2260, 2746, 2747, 2786, 2785
2261, 2747, 2748, 2787, 2786
2262, 2748, 2749, 2788, 2787
2263, 2749, 2750, 2789, 2788
2264, 2750, 2751, 2790, 2789
2265, 2751, 2752, 2791, 2790
2266, 2752, 2753, 2792, 2791
2267, 2753, 2754, 2793, 2792
2268, 2754, 2755, 2794, 2793
2269, 2755, 2756, 2795, 2794
2270, 2756, 2757, 2796, 2795
2271, 2757, 2758, 2797, 2796
2272, 2758, 2759, 2798, 2797
2273, 2759, 2760, 2799, 2798
2274, 2760, 2761, 2800, 2799
2275, 2761, 2762, 2801, 2800
2276, 2762, 2763, 2802, 2801
2277, 2763, 2764, 2803, 2802
2278, 2764, 2765, 2804, 2803
2279, 2765, 2766, 2805, 2804
2280, 2766,  103,  104, 2805
2281,  348, 2767, 2806,  347
2282, 2767, 2768, 2807, 2806
2283, 2768, 2769, 2808, 2807
2284, 2769, 2770, 2809, 2808
2285, 2770, 2771, 2810, 2809
2286, 2771, 2772, 2811, 2810
2287, 2772, 2773, 2812, 2811
2288, 2773, 2774, 2813, 2812
2289, 2774, 2775, 2814, 2813
2290, 2775, 2776, 2815, 2814
2291, 2776, 2777, 2816, 2815
2292, 2777, 2778, 2817, 2816
2293, 2778, 2779, 2818, 2817
2294, 2779, 2780, 2819, 2818
2295, 2780, 2781, 2820, 2819
2296, 2781, 2782, 2821, 2820
2297, 2782, 2783, 2822, 2821
2298, 2783, 2784, 2823, 2822
2299, 2784, 2785, 2824, 2823
2300, 2785, 2786, 2825, 2824
2301, 2786, 2787, 2826, 2825
2302, 2787, 2788, 2827, 2826
2303, 2788, 2789, 2828, 2827
2304, 2789, 2790, 2829, 2828
2305, 2790, 2791, 2830, 2829
2306, 2791, 2792, 2831, 2830
2307, 2792, 2793, 2832, 2831
2308, 2793, 2794, 2833, 2832
2309, 2794, 2795, 2834, 2833
2310, 2795, 2796, 2835, 2834
2311, 2796, 2797, 2836, 2835
2312, 2797, 2798, 2837, 2836
2313, 2798, 2799, 2838, 2837
2314, 2799, 2800, 2839, 2838
2315, 2800, 2801, 2840, 2839
2316, 2801, 2802, 2841, 2840
2317, 2802, 2803, 2842, 2841
2318, 2803, 2804, 2843, 2842
2319, 2804, 2805, 2844, 2843
2320, 2805,  104,  105, 2844
2321,  347, 2806, 2845,  346
2322, 2806, 2807, 2846, 2845
2323, 2807, 2808, 2847, 2846
2324, 2808, 2809, 2848, 2847
2325, 2809, 2810, 2849, 2848
2326, 2810, 2811, 2850, 2849
2327, 2811, 2812, 2851, 2850
2328, 2812, 2813, 2852, 2851
2329, 2813, 2814, 2853, 2852
2330, 2814, 2815, 2854, 2853
2331, 2815, 2816, 2855, 2854
2332, 2816, 2817, 2856, 2855
2333, 2817, 2818, 2857, 2856
2334, 2818, 2819, 2858, 2857
2335, 2819, 2820, 2859, 2858
2336, 2820, 2821, 2860, 2859
2337, 2821, 2822, 2861, 2860
2338, 2822, 2823, 2862, 2861
2339, 2823, 2824, 2863, 2862
2340, 2824, 2825, 2864, 2863
2341, 2825, 2826, 2865, 2864
2342, 2826, 2827, 2866, 2865
2343, 2827, 2828, 2867, 2866
2344, 2828, 2829, 2868, 2867
2345, 2829, 2830, 2869, 2868
2346, 2830, 2831, 2870, 2869
2347, 2831, 2832, 2871, 2870
2348, 2832, 2833, 2872, 2871
2349, 2833, 2834, 2873, 2872
2350, 2834, 2835, 2874, 2873
2351, 2835, 2836, 2875, 2874
2352, 2836, 2837, 2876, 2875
2353, 2837, 2838, 2877, 2876
2354, 2838, 2839, 2878, 2877
2355, 2839, 2840, 2879, 2878
2356, 2840, 2841, 2880, 2879
2357, 2841, 2842, 2881, 2880
2358, 2842, 2843, 2882, 2881
2359, 2843, 2844, 2883, 2882
2360, 2844,  105,  106, 2883
2361,  346, 2845, 2884,  345
2362, 2845, 2846, 2885, 2884
2363, 2846, 2847, 2886, 2885
2364, 2847, 2848, 2887, 2886
2365, 2848, 2849, 2888, 2887
2366, 2849, 2850, 2889, 2888
2367, 2850, 2851, 2890, 2889
2368, 2851, 2852, 2891, 2890
2369, 2852, 2853, 2892, 2891
2370, 2853, 2854, 2893, 2892
2371, 2854, 2855, 2894, 2893
2372, 2855, 2856, 2895, 2894
2373, 2856, 2857, 2896, 2895
2374, 2857, 2858, 2897, 2896
2375, 2858, 2859, 2898, 2897
2376, 2859, 2860, 2899, 2898
2377, 2860, 2861, 2900, 2899
2378, 2861, 2862, 2901, 2900
2379, 2862, 2863, 2902, 2901
2380, 2863, 2864, 2903, 2902
2381, 2864, 2865, 2904, 2903
2382, 2865, 2866, 2905, 2904
2383, 2866, 2867, 2906, 2905
2384, 2867, 2868, 2907, 2906
2385, 2868, 2869, 2908, 2907
2386, 2869, 2870, 2909, 2908
2387, 2870, 2871, 2910, 2909
2388, 2871, 2872, 2911, 2910
2389, 2872, 2873, 2912, 2911
2390, 2873, 2874, 2913, 2912
2391, 2874, 2875, 2914, 2913
2392, 2875, 2876, 2915, 2914
2393, 2876, 2877, 2916, 2915
2394, 2877, 2878, 2917, 2916
2395, 2878, 2879, 2918, 2917
2396, 2879, 2880, 2919, 2918
2397, 2880, 2881, 2920, 2919
2398, 2881, 2882, 2921, 2920
2399, 2882, 2883, 2922, 2921
2400, 2883,  106,  107, 2922
2401,  345, 2884, 2923,  344
2402, 2884, 2885, 2924, 2923
2403, 2885, 2886, 2925, 2924
2404, 2886, 2887, 2926, 2925
2405, 2887, 2888, 2927, 2926
2406, 2888, 2889, 2928, 2927
2407, 2889, 2890, 2929, 2928
2408, 2890, 2891, 2930, 2929
2409, 2891, 2892, 2931, 2930
2410, 2892, 2893, 2932, 2931
2411, 2893, 2894, 2933, 2932
2412, 2894, 2895, 2934, 2933
2413, 2895, 2896, 2935, 2934
2414, 2896, 2897, 2936, 2935
2415, 2897, 2898, 2937, 2936
2416, 2898, 2899, 2938, 2937
2417, 2899, 2900, 2939, 2938
2418, 2900, 2901, 2940, 2939
2419, 2901, 2902, 2941, 2940
2420, 2902, 2903, 2942, 2941
2421, 2903, 2904, 2943, 2942
2422, 2904, 2905, 2944, 2943
2423, 2905, 2906, 2945, 2944
2424, 2906, 2907, 2946, 2945
2425, 2907, 2908, 2947, 2946
2426, 2908, 2909, 2948, 2947
2427, 2909, 2910, 2949, 2948
2428, 2910, 2911, 2950, 2949
2429, 2911, 2912, 2951, 2950
2430, 2912, 2913, 2952, 2951
2431, 2913, 2914, 2953, 2952
2432, 2914, 2915, 2954, 2953
2433, 2915, 2916, 2955, 2954
2434, 2916, 2917, 2956, 2955
2435, 2917, 2918, 2957, 2956
2436, 2918, 2919, 2958, 2957
2437, 2919, 2920, 2959, 2958
2438, 2920, 2921, 2960, 2959
2439, 2921, 2922, 2961, 2960
2440, 2922,  107,  108, 2961
2441,  344, 2923, 2962,  343
2442, 2923, 2924, 2963, 2962
2443, 2924, 2925, 2964, 2963
2444, 2925, 2926, 2965, 2964
2445, 2926, 2927, 2966, 2965
2446, 2927, 2928, 2967, 2966
2447, 2928, 2929, 2968, 2967
2448, 2929, 2930, 2969, 2968
2449, 2930, 2931, 2970, 2969
2450, 2931, 2932, 2971, 2970
2451, 2932, 2933, 2972, 2971
2452, 2933, 2934, 2973, 2972
2453, 2934, 2935, 2974, 2973
2454, 2935, 2936, 2975, 2974
2455, 2936, 2937, 2976, 2975
2456, 2937, 2938, 2977, 2976
2457, 2938, 2939, 2978, 2977
2458, 2939, 2940, 2979, 2978
2459, 2940, 2941, 2980, 2979
2460, 2941, 2942, 2981, 2980
2461, 2942, 2943, 2982, 2981
2462, 2943, 2944, 2983, 2982
2463, 2944, 2945, 2984, 2983
2464, 2945, 2946, 2985, 2984
2465, 2946, 2947, 2986, 2985
2466, 2947, 2948, 2987, 2986
2467, 2948, 2949, 2988, 2987
2468, 2949, 2950, 2989, 2988
2469, 2950, 2951, 2990, 2989
2470, 2951, 2952, 2991, 2990
2471, 2952, 2953, 2992, 2991
2472, 2953, 2954, 2993, 2992
2473, 2954, 2955, 2994, 2993
2474, 2955, 2956, 2995, 2994
2475, 2956, 2957, 2996, 2995
2476, 2957, 2958, 2997, 2996
2477, 2958, 2959, 2998, 2997
2478, 2959, 2960, 2999, 2998
2479, 2960, 2961, 3000, 2999
2480, 2961,  108,  109, 3000
2481,  343, 2962, 3001,  342
2482, 2962, 2963, 3002, 3001
2483, 2963, 2964, 3003, 3002
2484, 2964, 2965, 3004, 3003
2485, 2965, 2966, 3005, 3004
2486, 2966, 2967, 3006, 3005
2487, 2967, 2968, 3007, 3006
2488, 2968, 2969, 3008, 3007
2489, 2969, 2970, 3009, 3008
2490, 2970, 2971, 3010, 3009
2491, 2971, 2972, 3011, 3010
2492, 2972, 2973, 3012, 3011
2493, 2973, 2974, 3013, 3012
2494, 2974, 2975, 3014, 3013
2495, 2975, 2976, 3015, 3014
2496, 2976, 2977, 3016, 3015
2497, 2977, 2978, 3017, 3016
2498, 2978, 2979, 3018, 3017
2499, 2979, 2980, 3019, 3018
2500, 2980, 2981, 3020, 3019
2501, 2981, 2982, 3021, 3020
2502, 2982, 2983, 3022, 3021
2503, 2983, 2984, 3023, 3022
2504, 2984, 2985, 3024, 3023
2505, 2985, 2986, 3025, 3024
2506, 2986, 2987, 3026, 3025
2507, 2987, 2988, 3027, 3026
2508, 2988, 2989, 3028, 3027
2509, 2989, 2990, 3029, 3028
2510, 2990, 2991, 3030, 3029
2511, 2991, 2992, 3031, 3030
2512, 2992, 2993, 3032, 3031
2513, 2993, 2994, 3033, 3032
2514, 2994, 2995, 3034, 3033
2515, 2995, 2996, 3035, 3034
2516, 2996, 2997, 3036, 3035
2517, 2997, 2998, 3037, 3036
2518, 2998, 2999, 3038, 3037
2519, 2999, 3000, 3039, 3038
2520, 3000,  109,  110, 3039
2521,  342, 3001, 3040,  341
2522, 3001, 3002, 3041, 3040
2523, 3002, 3003, 3042, 3041
2524, 3003, 3004, 3043, 3042
2525, 3004, 3005, 3044, 3043
2526, 3005, 3006, 3045, 3044
2527, 3006, 3007, 3046, 3045
2528, 3007, 3008, 3047, 3046
2529, 3008, 3009, 3048, 3047
2530, 3009, 3010, 3049, 3048
2531, 3010, 3011, 3050, 3049
2532, 3011, 3012, 3051, 3050
2533, 3012, 3013, 3052, 3051
2534, 3013, 3014, 3053, 3052
2535, 3014, 3015, 3054, 3053
2536, 3015, 3016, 3055, 3054
2537, 3016, 3017, 3056, 3055
2538, 3017, 3018, 3057, 3056
2539, 3018, 3019, 3058, 3057
2540, 3019, 3020, 3059, 3058
2541, 3020, 3021, 3060, 3059
2542, 3021, 3022, 3061, 3060
2543, 3022, 3023, 3062, 3061
2544, 3023, 3024, 3063, 3062
2545, 3024, 3025, 3064, 3063
2546, 3025, 3026, 3065, 3064
2547, 3026, 3027, 3066, 3065
2548, 3027, 3028, 3067, 3066
2549, 3028, 3029, 3068, 3067
2550, 3029, 3030, 3069, 3068
2551, 3030, 3031, 3070, 3069
2552, 3031, 3032, 3071, 3070
2553, 3032, 3033, 3072, 3071
2554, 3033, 3034, 3073, 3072
2555, 3034, 3035, 3074, 3073
2556, 3035, 3036, 3075, 3074
2557, 3036, 3037, 3076, 3075
2558, 3037, 3038, 3077, 3076
2559, 3038, 3039, 3078, 3077
2560, 3039,  110,  111, 3078
2561,  341, 3040, 3079,  340
2562, 3040, 3041, 3080, 3079
2563, 3041, 3042, 3081, 3080
2564, 3042, 3043, 3082, 3081
2565, 3043, 3044, 3083, 3082
2566, 3044, 3045, 3084, 3083
2567, 3045, 3046, 3085, 3084
2568, 3046, 3047, 3086, 3085
2569, 3047, 3048, 3087, 3086
2570, 3048, 3049, 3088, 3087
2571, 3049, 3050, 3089, 3088
2572, 3050, 3051, 3090, 3089
2573, 3051, 3052, 3091, 3090
2574, 3052, 3053, 3092, 3091
2575, 3053, 3054, 3093, 3092
2576, 3054, 3055, 3094, 3093
2577, 3055, 3056, 3095, 3094
2578, 3056, 3057, 3096, 3095
2579, 3057, 3058, 3097, 3096
2580, 3058, 3059, 3098, 3097
2581, 3059, 3060, 3099, 3098
2582, 3060, 3061, 3100, 3099
2583, 3061, 3062, 3101, 3100
2584, 3062, 3063, 3102, 3101
2585, 3063, 3064, 3103, 3102
2586, 3064, 3065, 3104, 3103
2587, 3065, 3066, 3105, 3104
2588, 3066, 3067, 3106, 3105
2589, 3067, 3068, 3107, 3106
2590, 3068, 3069, 3108, 3107
2591, 3069, 3070, 3109, 3108
2592, 3070, 3071, 3110, 3109
2593, 3071, 3072, 3111, 3110
2594, 3072, 3073, 3112, 3111
2595, 3073, 3074, 3113, 3112
2596, 3074, 3075, 3114, 3113
2597, 3075, 3076, 3115, 3114
2598, 3076, 3077, 3116, 3115
2599, 3077, 3078, 3117, 3116
2600, 3078,  111,  112, 3117
2601,  340, 3079, 3118,  339
2602, 3079, 3080, 3119, 3118
2603, 3080, 3081, 3120, 3119
2604, 3081, 3082, 3121, 3120
2605, 3082, 3083, 3122, 3121
2606, 3083, 3084, 3123, 3122
2607, 3084, 3085, 3124, 3123
2608, 3085, 3086, 3125, 3124
2609, 3086, 3087, 3126, 3125
2610, 3087, 3088, 3127, 3126
2611, 3088, 3089, 3128, 3127
2612, 3089, 3090, 3129, 3128
2613, 3090, 3091, 3130, 3129
2614, 3091, 3092, 3131, 3130
2615, 3092, 3093, 3132, 3131
2616, 3093, 3094, 3133, 3132
2617, 3094, 3095, 3134, 3133
2618, 3095, 3096, 3135, 3134
2619, 3096, 3097, 3136, 3135
2620, 3097, 3098, 3137, 3136
2621, 3098, 3099, 3138, 3137
2622, 3099, 3100, 3139, 3138
2623, 3100, 3101, 3140, 3139
2624, 3101, 3102, 3141, 3140
2625, 3102, 3103, 3142, 3141
2626, 3103, 3104, 3143, 3142
2627, 3104, 3105, 3144, 3143
2628, 3105, 3106, 3145, 3144
2629, 3106, 3107, 3146, 3145
2630, 3107, 3108, 3147, 3146
2631, 3108, 3109, 3148, 3147
2632, 3109, 3110, 3149, 3148
2633, 3110, 3111, 3150, 3149
2634, 3111, 3112, 3151, 3150
2635, 3112, 3113, 3152, 3151
2636, 3113, 3114, 3153, 3152
2637, 3114, 3115, 3154, 3153
2638, 3115, 3116, 3155, 3154
2639, 3116, 3117, 3156, 3155
2640, 3117,  112,  113, 3156
2641,  339, 3118, 3157,  338
2642, 3118, 3119, 3158, 3157
2643, 3119, 3120, 3159, 3158
2644, 3120, 3121, 3160, 3159
2645, 3121, 3122, 3161, 3160
2646, 3122, 3123, 3162, 3161
2647, 3123, 3124, 3163, 3162
2648, 3124, 3125, 3164, 3163
2649, 3125, 3126, 3165, 3164
2650, 3126, 3127, 3166, 3165
2651, 3127, 3128, 3167, 3166
2652, 3128, 3129, 3168, 3167
2653, 3129, 3130, 3169, 3168
2654, 3130, 3131, 3170, 3169
2655, 3131, 3132, 3171, 3170
2656, 3132, 3133, 3172, 3171
2657, 3133, 3134, 3173, 3172
2658, 3134, 3135, 3174, 3173
2659, 3135, 3136, 3175, 3174
2660, 3136, 3137, 3176, 3175
2661, 3137, 3138, 3177, 3176
2662, 3138, 3139, 3178, 3177
2663, 3139, 3140, 3179, 3178
2664, 3140, 3141, 3180, 3179
2665, 3141, 3142, 3181, 3180
2666, 3142, 3143, 3182, 3181
2667, 3143, 3144, 3183, 3182
2668, 3144, 3145, 3184, 3183
2669, 3145, 3146, 3185, 3184
2670, 3146, 3147, 3186, 3185
2671, 3147, 3148, 3187, 3186
2672, 3148, 3149, 3188, 3187
2673, 3149, 3150, 3189, 3188
2674, 3150, 3151, 3190, 3189
2675, 3151, 3152, 3191, 3190
2676, 3152, 3153, 3192, 3191
2677, 3153, 3154, 3193, 3192
2678, 3154, 3155, 3194, 3193
2679, 3155, 3156, 3195, 3194
2680, 3156,  113,  114, 3195
2681,  338, 3157, 3196,  337
2682, 3157, 3158, 3197, 3196
2683, 3158, 3159, 3198, 3197
2684, 3159, 3160, 3199, 3198
2685, 3160, 3161, 3200, 3199
2686, 3161, 3162, 3201, 3200
2687, 3162, 3163, 3202, 3201
2688, 3163, 3164, 3203, 3202
2689, 3164, 3165, 3204, 3203
2690, 3165, 3166, 3205, 3204
2691, 3166, 3167, 3206, 3205
2692, 3167, 3168, 3207, 3206
2693, 3168, 3169, 3208, 3207
2694, 3169, 3170, 3209, 3208
2695, 3170, 3171, 3210, 3209
2696, 3171, 3172, 3211, 3210
2697, 3172, 3173, 3212, 3211
2698, 3173, 3174, 3213, 3212
2699, 3174, 3175, 3214, 3213
2700, 3175, 3176, 3215, 3214
2701, 3176, 3177, 3216, 3215
2702, 3177, 3178, 3217, 3216
2703, 3178, 3179, 3218, 3217
2704, 3179, 3180, 3219, 3218
2705, 3180, 3181, 3220, 3219
2706, 3181, 3182, 3221, 3220
2707, 3182, 3183, 3222, 3221
2708, 3183, 3184, 3223, 3222
2709, 3184, 3185, 3224, 3223
2710, 3185, 3186, 3225, 3224
2711, 3186, 3187, 3226, 3225
2712, 3187, 3188, 3227, 3226
2713, 3188, 3189, 3228, 3227
2714, 3189, 3190, 3229, 3228
2715, 3190, 3191, 3230, 3229
2716, 3191, 3192, 3231, 3230
2717, 3192, 3193, 3232, 3231
2718, 3193, 3194, 3233, 3232
2719, 3194, 3195, 3234, 3233
2720, 3195,  114,  115, 3234
2721,  337, 3196, 3235,  336
2722, 3196, 3197, 3236, 3235
2723, 3197, 3198, 3237, 3236
2724, 3198, 3199, 3238, 3237
2725, 3199, 3200, 3239, 3238
2726, 3200, 3201, 3240, 3239
2727, 3201, 3202, 3241, 3240
2728, 3202, 3203, 3242, 3241
2729, 3203, 3204, 3243, 3242
2730, 3204, 3205, 3244, 3243
2731, 3205, 3206, 3245, 3244
2732, 3206, 3207, 3246, 3245
2733, 3207, 3208, 3247, 3246
2734, 3208, 3209, 3248, 3247
2735, 3209, 3210, 3249, 3248
2736, 3210, 3211, 3250, 3249
2737, 3211, 3212, 3251, 3250
2738, 3212, 3213, 3252, 3251
2739, 3213, 3214, 3253, 3252
2740, 3214, 3215, 3254, 3253
2741, 3215, 3216, 3255, 3254
2742, 3216, 3217, 3256, 3255
2743, 3217, 3218, 3257, 3256
2744, 3218, 3219, 3258, 3257
2745, 3219, 3220, 3259, 3258
2746, 3220, 3221, 3260, 3259
2747, 3221, 3222, 3261, 3260
2748, 3222, 3223, 3262, 3261
2749, 3223, 3224, 3263, 3262
2750, 3224, 3225, 3264, 3263
2751, 3225, 3226, 3265, 3264
2752, 3226, 3227, 3266, 3265
2753, 3227, 3228, 3267, 3266
2754, 3228, 3229, 3268, 3267
2755, 3229, 3230, 3269, 3268
2756, 3230, 3231, 3270, 3269
2757, 3231, 3232, 3271, 3270
2758, 3232, 3233, 3272, 3271
2759, 3233, 3234, 3273, 3272
2760, 3234,  115,  116, 3273
2761,  336, 3235, 3274,  335
2762, 3235, 3236, 3275, 3274
2763, 3236, 3237, 3276, 3275
2764, 3237, 3238, 3277, 3276
2765, 3238, 3239, 3278, 3277
2766, 3239, 3240, 3279, 3278
2767, 3240, 3241, 3280, 3279
2768, 3241, 3242, 3281, 3280
2769, 3242, 3243, 3282, 3281
2770, 3243, 3244, 3283, 3282
2771, 3244, 3245, 3284, 3283
2772, 3245, 3246, 3285, 3284
2773, 3246, 3247, 3286, 3285
2774, 3247, 3248, 3287, 3286
2775, 3248, 3249, 3288, 3287
2776, 3249, 3250, 3289, 3288
2777, 3250, 3251, 3290, 3289
2778, 3251, 3252, 3291, 3290
2779, 3252, 3253, 3292, 3291
2780, 3253, 3254, 3293, 3292
2781, 3254, 3255, 3294, 3293
2782, 3255, 3256, 3295, 3294
2783, 3256, 3257, 3296, 3295
2784, 3257, 3258, 3297, 3296
2785, 3258, 3259, 3298, 3297
2786, 3259, 3260, 3299, 3298
2787, 3260, 3261, 3300, 3299
2788, 3261, 3262, 3301, 3300
2789, 3262, 3263, 3302, 3301
2790, 3263, 3264, 3303, 3302
2791, 3264, 3265, 3304, 3303
2792, 3265, 3266, 3305, 3304
2793, 3266, 3267, 3306, 3305
2794, 3267, 3268, 3307, 3306
2795, 3268, 3269, 3308, 3307
2796, 3269, 3270, 3309, 3308
2797, 3270, 3271, 3310, 3309
2798, 3271, 3272, 3311, 3310
2799, 3272, 3273, 3312, 3311
2800, 3273,  116,  117, 3312
2801,  335, 3274, 3313,  334
2802, 3274, 3275, 3314, 3313
2803, 3275, 3276, 3315, 3314
2804, 3276, 3277, 3316, 3315
2805, 3277, 3278, 3317, 3316
2806, 3278, 3279, 3318, 3317
2807, 3279, 3280, 3319, 3318
2808, 3280, 3281, 3320, 3319
2809, 3281, 3282, 3321, 3320
2810, 3282, 3283, 3322, 3321
2811, 3283, 3284, 3323, 3322
2812, 3284, 3285, 3324, 3323
2813, 3285, 3286, 3325, 3324
2814, 3286, 3287, 3326, 3325
2815, 3287, 3288, 3327, 3326
2816, 3288, 3289, 3328, 3327
2817, 3289, 3290, 3329, 3328
2818, 3290, 3291, 3330, 3329
2819, 3291, 3292, 3331, 3330
2820, 3292, 3293, 3332, 3331
2821, 3293, 3294, 3333, 3332
2822, 3294, 3295, 3334, 3333
2823, 3295, 3296, 3335, 3334
2824, 3296, 3297, 3336, 3335
2825, 3297, 3298, 3337, 3336
2826, 3298, 3299, 3338, 3337
2827, 3299, 3300, 3339, 3338
2828, 3300, 3301, 3340, 3339
2829, 3301, 3302, 3341, 3340
2830, 3302, 3303, 3342, 3341
2831, 3303, 3304, 3343, 3342
2832, 3304, 3305, 3344, 3343
2833, 3305, 3306, 3345, 3344
2834, 3306, 3307, 3346, 3345
2835, 3307, 3308, 3347, 3346
2836, 3308, 3309, 3348, 3347
2837, 3309, 3310, 3349, 3348
2838, 3310, 3311, 3350, 3349
2839, 3311, 3312, 3351, 3350
2840, 3312,  117,  118, 3351
2841,  334, 3313, 3352,  333
2842, 3313, 3314, 3353, 3352
2843, 3314, 3315, 3354, 3353
2844, 3315, 3316, 3355, 3354
2845, 3316, 3317, 3356, 3355
2846, 3317, 3318, 3357, 3356
2847, 3318, 3319, 3358, 3357
2848, 3319, 3320, 3359, 3358
2849, 3320, 3321, 3360, 3359
2850, 3321, 3322, 3361, 3360
2851, 3322, 3323, 3362, 3361
2852, 3323, 3324, 3363, 3362
2853, 3324, 3325, 3364, 3363
2854, 3325, 3326, 3365, 3364
2855, 3326, 3327, 3366, 3365
2856, 3327, 3328, 3367, 3366
2857, 3328, 3329, 3368, 3367
2858, 3329, 3330, 3369, 3368
2859, 3330, 3331, 3370, 3369
2860, 3331, 3332, 3371, 3370
2861, 3332, 3333, 3372, 3371
2862, 3333, 3334, 3373, 3372
2863, 3334, 3335, 3374, 3373
2864, 3335, 3336, 3375, 3374
2865, 3336, 3337, 3376, 3375
2866, 3337, 3338, 3377, 3376
2867, 3338, 3339, 3378, 3377
2868, 3339, 3340, 3379, 3378
2869, 3340, 3341, 3380, 3379
2870, 3341, 3342, 3381, 3380
2871, 3342, 3343, 3382, 3381
2872, 3343, 3344, 3383, 3382
2873, 3344, 3345, 3384, 3383
2874, 3345, 3346, 3385, 3384
2875, 3346, 3347, 3386, 3385
2876, 3347, 3348, 3387, 3386
2877, 3348, 3349, 3388, 3387
2878, 3349, 3350, 3389, 3388
2879, 3350, 3351, 3390, 3389
2880, 3351,  118,  119, 3390
2881,  333, 3352, 3391,  332
2882, 3352, 3353, 3392, 3391
2883, 3353, 3354, 3393, 3392
2884, 3354, 3355, 3394, 3393
2885, 3355, 3356, 3395, 3394
2886, 3356, 3357, 3396, 3395
2887, 3357, 3358, 3397, 3396
2888, 3358, 3359, 3398, 3397
2889, 3359, 3360, 3399, 3398
2890, 3360, 3361, 3400, 3399
2891, 3361, 3362, 3401, 3400
2892, 3362, 3363, 3402, 3401
2893, 3363, 3364, 3403, 3402
2894, 3364, 3365, 3404, 3403
2895, 3365, 3366, 3405, 3404
2896, 3366, 3367, 3406, 3405
2897, 3367, 3368, 3407, 3406
2898, 3368, 3369, 3408, 3407
2899, 3369, 3370, 3409, 3408
2900, 3370, 3371, 3410, 3409
2901, 3371, 3372, 3411, 3410
2902, 3372, 3373, 3412, 3411
2903, 3373, 3374, 3413, 3412
2904, 3374, 3375, 3414, 3413
2905, 3375, 3376, 3415, 3414
2906, 3376, 3377, 3416, 3415
2907, 3377, 3378, 3417, 3416
2908, 3378, 3379, 3418, 3417
2909, 3379, 3380, 3419, 3418
2910, 3380, 3381, 3420, 3419
2911, 3381, 3382, 3421, 3420
2912, 3382, 3383, 3422, 3421
2913, 3383, 3384, 3423, 3422
2914, 3384, 3385, 3424, 3423
2915, 3385, 3386, 3425, 3424
2916, 3386, 3387, 3426, 3425
2917, 3387, 3388, 3427, 3426
2918, 3388, 3389, 3428, 3427
2919, 3389, 3390, 3429, 3428
2920, 3390,  119,  120, 3429
2921,  332, 3391, 3430,  331
2922, 3391, 3392, 3431, 3430
2923, 3392, 3393, 3432, 3431
2924, 3393, 3394, 3433, 3432
2925, 3394, 3395, 3434, 3433
2926, 3395, 3396, 3435, 3434
2927, 3396, 3397, 3436, 3435
2928, 3397, 3398, 3437, 3436
2929, 3398, 3399, 3438, 3437
2930, 3399, 3400, 3439, 3438
2931, 3400, 3401, 3440, 3439
2932, 3401, 3402, 3441, 3440
2933, 3402, 3403, 3442, 3441
2934, 3403, 3404, 3443, 3442
2935, 3404, 3405, 3444, 3443
2936, 3405, 3406, 3445, 3444
2937, 3406, 3407, 3446, 3445
2938, 3407, 3408, 3447, 3446
2939, 3408, 3409, 3448, 3447
2940, 3409, 3410, 3449, 3448
2941, 3410, 3411, 3450, 3449
2942, 3411, 3412, 3451, 3450
2943, 3412, 3413, 3452, 3451
2944, 3413, 3414, 3453, 3452
2945, 3414, 3415, 3454, 3453
2946, 3415, 3416, 3455, 3454
2947, 3416, 3417, 3456, 3455
2948, 3417, 3418, 3457, 3456
2949, 3418, 3419, 3458, 3457
2950, 3419, 3420, 3459, 3458
2951, 3420, 3421, 3460, 3459
2952, 3421, 3422, 3461, 3460
2953, 3422, 3423, 3462, 3461
2954, 3423, 3424, 3463, 3462
2955, 3424, 3425, 3464, 3463
2956, 3425, 3426, 3465, 3464
2957, 3426, 3427, 3466, 3465
2958, 3427, 3428, 3467, 3466
2959, 3428, 3429, 3468, 3467
2960, 3429,  120,  121, 3468
2961,  331, 3430, 3469,  330
2962, 3430, 3431, 3470, 3469
2963, 3431, 3432, 3471, 3470
2964, 3432, 3433, 3472, 3471
2965, 3433, 3434, 3473, 3472
2966, 3434, 3435, 3474, 3473
2967, 3435, 3436, 3475, 3474
2968, 3436, 3437, 3476, 3475
2969, 3437, 3438, 3477, 3476
2970, 3438, 3439, 3478, 3477
2971, 3439, 3440, 3479, 3478
2972, 3440, 3441, 3480, 3479
2973, 3441, 3442, 3481, 3480
2974, 3442, 3443, 3482, 3481
2975, 3443, 3444, 3483, 3482
2976, 3444, 3445, 3484, 3483
2977, 3445, 3446, 3485, 3484
2978, 3446, 3447, 3486, 3485
2979, 3447, 3448, 3487, 3486
2980, 3448, 3449, 3488, 3487
2981, 3449, 3450, 3489, 3488
2982, 3450, 3451, 3490, 3489
2983, 3451, 3452, 3491, 3490
2984, 3452, 3453, 3492, 3491
2985, 3453, 3454, 3493, 3492
2986, 3454, 3455, 3494, 3493
2987, 3455, 3456, 3495, 3494
2988, 3456, 3457, 3496, 3495
2989, 3457, 3458, 3497, 3496
2990, 3458, 3459, 3498, 3497
2991, 3459, 3460, 3499, 3498
2992, 3460, 3461, 3500, 3499
2993, 3461, 3462, 3501, 3500
2994, 3462, 3463, 3502, 3501
2995, 3463, 3464, 3503, 3502
2996, 3464, 3465, 3504, 3503
2997, 3465, 3466, 3505, 3504
2998, 3466, 3467, 3506, 3505
2999, 3467, 3468, 3507, 3506
3000, 3468,  121,  122, 3507
3001,  330, 3469, 3508,  329
3002, 3469, 3470, 3509, 3508
3003, 3470, 3471, 3510, 3509
3004, 3471, 3472, 3511, 3510
3005, 3472, 3473, 3512, 3511
3006, 3473, 3474, 3513, 3512
3007, 3474, 3475, 3514, 3513
3008, 3475, 3476, 3515, 3514
3009, 3476, 3477, 3516, 3515
3010, 3477, 3478, 3517, 3516
3011, 3478, 3479, 3518, 3517
3012, 3479, 3480, 3519, 3518
3013, 3480, 3481, 3520, 3519
3014, 3481, 3482, 3521, 3520
3015, 3482, 3483, 3522, 3521
3016, 3483, 3484, 3523, 3522
3017, 3484, 3485, 3524, 3523
3018, 3485, 3486, 3525, 3524
3019, 3486, 3487, 3526, 3525
3020, 3487, 3488, 3527, 3526
3021, 3488, 3489, 3528, 3527
3022, 3489, 3490, 3529, 3528
3023, 3490, 3491, 3530, 3529
3024, 3491, 3492, 3531, 3530
3025, 3492, 3493, 3532, 3531
3026, 3493, 3494, 3533, 3532
3027, 3494, 3495, 3534, 3533
3028, 3495, 3496, 3535, 3534
3029, 3496, 3497, 3536, 3535
3030, 3497, 3498, 3537, 3536
3031, 3498, 3499, 3538, 3537
3032, 3499, 3500, 3539, 3538
3033, 3500, 3501, 3540, 3539
3034, 3501, 3502, 3541, 3540
3035, 3502, 3503, 3542, 3541
3036, 3503, 3504, 3543, 3542
3037, 3504, 3505, 3544, 3543
3038, 3505, 3506, 3545, 3544
3039, 3506, 3507, 3546, 3545
3040, 3507,  122,  123, 3546
3041,  329, 3508, 3547,  328
3042, 3508, 3509, 3548, 3547
3043, 3509, 3510, 3549, 3548
3044, 3510, 3511, 3550, 3549
3045, 3511, 3512, 3551, 3550
3046, 3512, 3513, 3552, 3551
3047, 3513, 3514, 3553, 3552
3048, 3514, 3515, 3554, 3553
3049, 3515, 3516, 3555, 3554
3050, 3516, 3517, 3556, 3555
3051, 3517, 3518, 3557, 3556
3052, 3518, 3519, 3558, 3557
3053, 3519, 3520, 3559, 3558
3054, 3520, 3521, 3560, 3559
3055, 3521, 3522, 3561, 3560
3056, 3522, 3523, 3562, 3561
3057, 3523, 3524, 3563, 3562
3058, 3524, 3525, 3564, 3563
3059, 3525, 3526, 3565, 3564
3060, 3526, 3527, 3566, 3565
3061, 3527, 3528, 3567, 3566
3062, 3528, 3529, 3568, 3567
3063, 3529, 3530, 3569, 3568
3064, 3530, 3531, 3570, 3569
3065, 3531, 3532, 3571, 3570
3066, 3532, 3533, 3572, 3571
3067, 3533, 3534, 3573, 3572
3068, 3534, 3535, 3574, 3573
3069, 3535, 3536, 3575, 3574
3070, 3536, 3537, 3576, 3575
3071, 3537, 3538, 3577, 3576
3072, 3538, 3539, 3578, 3577
3073, 3539, 3540, 3579, 3578
3074, 3540, 3541, 3580, 3579
3075, 3541, 3542, 3581, 3580
3076, 3542, 3543, 3582, 3581
3077, 3543, 3544, 3583, 3582
3078, 3544, 3545, 3584, 3583
3079, 3545, 3546, 3585, 3584
3080, 3546,  123,  124, 3585
3081,  328, 3547, 3586,  327
3082, 3547, 3548, 3587, 3586
3083, 3548, 3549, 3588, 3587
3084, 3549, 3550, 3589, 3588
3085, 3550, 3551, 3590, 3589
3086, 3551, 3552, 3591, 3590
3087, 3552, 3553, 3592, 3591
3088, 3553, 3554, 3593, 3592
3089, 3554, 3555, 3594, 3593
3090, 3555, 3556, 3595, 3594
3091, 3556, 3557, 3596, 3595
3092, 3557, 3558, 3597, 3596
3093, 3558, 3559, 3598, 3597
3094, 3559, 3560, 3599, 3598
3095, 3560, 3561, 3600, 3599
3096, 3561, 3562, 3601, 3600
3097, 3562, 3563, 3602, 3601
3098, 3563, 3564, 3603, 3602
3099, 3564, 3565, 3604, 3603
3100, 3565, 3566, 3605, 3604
3101, 3566, 3567, 3606, 3605
3102, 3567, 3568, 3607, 3606
3103, 3568, 3569, 3608, 3607
3104, 3569, 3570, 3609, 3608
3105, 3570, 3571, 3610, 3609
3106, 3571, 3572, 3611, 3610
3107, 3572, 3573, 3612, 3611
3108, 3573, 3574, 3613, 3612
3109, 3574, 3575, 3614, 3613
3110, 3575, 3576, 3615, 3614
3111, 3576, 3577, 3616, 3615
3112, 3577, 3578, 3617, 3616
3113, 3578, 3579, 3618, 3617
3114, 3579, 3580, 3619, 3618
3115, 3580, 3581, 3620, 3619
3116, 3581, 3582, 3621, 3620
3117, 3582, 3583, 3622, 3621
3118, 3583, 3584, 3623, 3622
3119, 3584, 3585, 3624, 3623
3120, 3585,  124,  125, 3624
3121,  327, 3586, 3625,  326
3122, 3586, 3587, 3626, 3625
3123, 3587, 3588, 3627, 3626
3124, 3588, 3589, 3628, 3627
3125, 3589, 3590, 3629, 3628
3126, 3590, 3591, 3630, 3629
3127, 3591, 3592, 3631, 3630
3128, 3592, 3593, 3632, 3631
3129, 3593, 3594, 3633, 3632
3130, 3594, 3595, 3634, 3633
3131, 3595, 3596, 3635, 3634
3132, 3596, 3597, 3636, 3635
3133, 3597, 3598, 3637, 3636
3134, 3598, 3599, 3638, 3637
3135, 3599, 3600, 3639, 3638
3136, 3600, 3601, 3640, 3639
3137, 3601, 3602, 3641, 3640
3138, 3602, 3603, 3642, 3641
3139, 3603, 3604, 3643, 3642
3140, 3604, 3605, 3644, 3643
3141, 3605, 3606, 3645, 3644
3142, 3606, 3607, 3646, 3645
3143, 3607, 3608, 3647, 3646
3144, 3608, 3609, 3648, 3647
3145, 3609, 3610, 3649, 3648
3146, 3610, 3611, 3650, 3649
3147, 3611, 3612, 3651, 3650
3148, 3612, 3613, 3652, 3651
3149, 3613, 3614, 3653, 3652
3150, 3614, 3615, 3654, 3653
3151, 3615, 3616, 3655, 3654
3152, 3616, 3617, 3656, 3655
3153, 3617, 3618, 3657, 3656
3154, 3618, 3619, 3658, 3657
3155, 3619, 3620, 3659, 3658
3156, 3620, 3621, 3660, 3659
3157, 3621, 3622, 3661, 3660
3158, 3622, 3623, 3662, 3661
3159, 3623, 3624, 3663, 3662
3160, 3624,  125,  126, 3663
3161,  326, 3625, 3664,  325
3162, 3625, 3626, 3665, 3664
3163, 3626, 3627, 3666, 3665
3164, 3627, 3628, 3667, 3666
3165, 3628, 3629, 3668, 3667
3166, 3629, 3630, 3669, 3668
3167, 3630, 3631, 3670, 3669
3168, 3631, 3632, 3671, 3670
3169, 3632, 3633, 3672, 3671
3170, 3633, 3634, 3673, 3672
3171, 3634, 3635, 3674, 3673
3172, 3635, 3636, 3675, 3674
3173, 3636, 3637, 3676, 3675
3174, 3637, 3638, 3677, 3676
3175, 3638, 3639, 3678, 3677
3176, 3639, 3640, 3679, 3678
3177, 3640, 3641, 3680, 3679
3178, 3641, 3642, 3681, 3680
3179, 3642, 3643, 3682, 3681
3180, 3643, 3644, 3683, 3682
3181, 3644, 3645, 3684, 3683
3182, 3645, 3646, 3685, 3684
3183, 3646, 3647, 3686, 3685
3184, 3647, 3648, 3687, 3686
3185, 3648, 3649, 3688, 3687
3186, 3649, 3650, 3689, 3688
3187, 3650, 3651, 3690, 3689
3188, 3651, 3652, 3691, 3690
3189, 3652, 3653, 3692, 3691
3190, 3653, 3654, 3693, 3692
3191, 3654, 3655, 3694, 3693
3192, 3655, 3656, 3695, 3694
3193, 3656, 3657, 3696, 3695
3194, 3657, 3658, 3697, 3696
3195, 3658, 3659, 3698, 3697
3196, 3659, 3660, 3699, 3698
3197, 3660, 3661, 3700, 3699
3198, 3661, 3662, 3701, 3700
3199, 3662, 3663, 3702, 3701
3200, 3663,  126,  127, 3702
3201,  325, 3664, 3703,  324
3202, 3664, 3665, 3704, 3703
3203, 3665, 3666, 3705, 3704
3204, 3666, 3667, 3706, 3705
3205, 3667, 3668, 3707, 3706
3206, 3668, 3669, 3708, 3707
3207, 3669, 3670, 3709, 3708
3208, 3670, 3671, 3710, 3709
3209, 3671, 3672, 3711, 3710
3210, 3672, 3673, 3712, 3711
3211, 3673, 3674, 3713, 3712
3212, 3674, 3675, 3714, 3713
3213, 3675, 3676, 3715, 3714
3214, 3676, 3677, 3716, 3715
3215, 3677, 3678, 3717, 3716
3216, 3678, 3679, 3718, 3717
3217, 3679, 3680, 3719, 3718
3218, 3680, 3681, 3720, 3719
3219, 3681, 3682, 3721, 3720
3220, 3682, 3683, 3722, 3721
3221, 3683, 3684, 3723, 3722
3222, 3684, 3685, 3724, 3723
3223, 3685, 3686, 3725, 3724
3224, 3686, 3687, 3726, 3725
3225, 3687, 3688, 3727, 3726
3226, 3688, 3689, 3728, 3727
3227, 3689, 3690, 3729, 3728
3228, 3690, 3691, 3730, 3729
3229, 3691, 3692, 3731, 3730
3230, 3692, 3693, 3732, 3731
3231, 3693, 3694, 3733, 3732
3232, 3694, 3695, 3734, 3733
3233, 3695, 3696, 3735, 3734
3234, 3696, 3697, 3736, 3735
3235, 3697, 3698, 3737, 3736
3236, 3698, 3699, 3738, 3737
3237, 3699, 3700, 3739, 3738
3238, 3700, 3701, 3740, 3739
3239, 3701, 3702, 3741, 3740
3240, 3702,  127,  128, 3741
3241,  324, 3703, 3742,  323
3242, 3703, 3704, 3743, 3742
3243, 3704, 3705, 3744, 3743
3244, 3705, 3706, 3745, 3744
3245, 3706, 3707, 3746, 3745
3246, 3707, 3708, 3747, 3746
3247, 3708, 3709, 3748, 3747
3248, 3709, 3710, 3749, 3748
3249, 3710, 3711, 3750, 3749
3250, 3711, 3712, 3751, 3750
3251, 3712, 3713, 3752, 3751
3252, 3713, 3714, 3753, 3752
3253, 3714, 3715, 3754, 3753
3254, 3715, 3716, 3755, 3754
3255, 3716, 3717, 3756, 3755
3256, 3717, 3718, 3757, 3756
3257, 3718, 3719, 3758, 3757
3258, 3719, 3720, 3759, 3758
3259, 3720, 3721, 3760, 3759
3260, 3721, 3722, 3761, 3760
3261, 3722, 3723, 3762, 3761
3262, 3723, 3724, 3763, 3762
3263, 3724, 3725, 3764, 3763
3264, 3725, 3726, 3765, 3764
3265, 3726, 3727, 3766, 3765
3266, 3727, 3728, 3767, 3766
3267, 3728, 3729, 3768, 3767
3268, 3729, 3730, 3769, 3768
3269, 3730, 3731, 3770, 3769
3270, 3731, 3732, 3771, 3770
3271, 3732, 3733, 3772, 3771
3272, 3733, 3734, 3773, 3772
3273, 3734, 3735, 3774, 3773
3274, 3735, 3736, 3775, 3774
3275, 3736, 3737, 3776, 3775
3276, 3737, 3738, 3777, 3776
3277, 3738, 3739, 3778, 3777
3278, 3739, 3740, 3779, 3778
3279, 3740, 3741, 3780, 3779
3280, 3741,  128,  129, 3780
3281,  323, 3742, 3781,  322
3282, 3742, 3743, 3782, 3781
3283, 3743, 3744, 3783, 3782
3284, 3744, 3745, 3784, 3783
3285, 3745, 3746, 3785, 3784
3286, 3746, 3747, 3786, 3785
3287, 3747, 3748, 3787, 3786
3288, 3748, 3749, 3788, 3787
3289, 3749, 3750, 3789, 3788
3290, 3750, 3751, 3790, 3789
3291, 3751, 3752, 3791, 3790
3292, 3752, 3753, 3792, 3791
3293, 3753, 3754, 3793, 3792
3294, 3754, 3755, 3794, 3793
3295, 3755, 3756, 3795, 3794
3296, 3756, 3757, 3796, 3795
3297, 3757, 3758, 3797, 3796
3298, 3758, 3759, 3798, 3797
3299, 3759, 3760, 3799, 3798
3300, 3760, 3761, 3800, 3799
3301, 3761, 3762, 3801, 3800
3302, 3762, 3763, 3802, 3801
3303, 3763, 3764, 3803, 3802
3304, 3764, 3765, 3804, 3803
3305, 3765, 3766, 3805, 3804
3306, 3766, 3767, 3806, 3805
3307, 3767, 3768, 3807, 3806
3308, 3768, 3769, 3808, 3807
3309, 3769, 3770, 3809, 3808
3310, 3770, 3771, 3810, 3809
3311, 3771, 3772, 3811, 3810
3312, 3772, 3773, 3812, 3811
3313, 3773, 3774, 3813, 3812
3314, 3774, 3775, 3814, 3813
3315, 3775, 3776, 3815, 3814
3316, 3776, 3777, 3816, 3815
3317, 3777, 3778, 3817, 3816
3318, 3778, 3779, 3818, 3817
3319, 3779, 3780, 3819, 3818
3320, 3780,  129,  130, 3819
3321,  322, 3781, 3820,  321
3322, 3781, 3782, 3821, 3820
3323, 3782, 3783, 3822, 3821
3324, 3783, 3784, 3823, 3822
3325, 3784, 3785, 3824, 3823
3326, 3785, 3786, 3825, 3824
3327, 3786, 3787, 3826, 3825
3328, 3787, 3788, 3827, 3826
3329, 3788, 3789, 3828, 3827
3330, 3789, 3790, 3829, 3828
3331, 3790, 3791, 3830, 3829
3332, 3791, 3792, 3831, 3830
3333, 3792, 3793, 3832, 3831
3334, 3793, 3794, 3833, 3832
3335, 3794, 3795, 3834, 3833
3336, 3795, 3796, 3835, 3834
3337, 3796, 3797, 3836, 3835
3338, 3797, 3798, 3837, 3836
3339, 3798, 3799, 3838, 3837
3340, 3799, 3800, 3839, 3838
3341, 3800, 3801, 3840, 3839
3342, 3801, 3802, 3841, 3840
3343, 3802, 3803, 3842, 3841
3344, 3803, 3804, 3843, 3842
3345, 3804, 3805, 3844, 3843
3346, 3805, 3806, 3845, 3844
3347, 3806, 3807, 3846, 3845
3348, 3807, 3808, 3847, 3846
3349, 3808, 3809, 3848, 3847
3350, 3809, 3810, 3849, 3848
3351, 3810, 3811, 3850, 3849
3352, 3811, 3812, 3851, 3850
3353, 3812, 3813, 3852, 3851
3354, 3813, 3814, 3853, 3852
3355, 3814, 3815, 3854, 3853
3356, 3815, 3816, 3855, 3854
3357, 3816, 3817, 3856, 3855
3358, 3817, 3818, 3857, 3856
3359, 3818, 3819, 3858, 3857
3360, 3819,  130,  131, 3858
3361,  321, 3820, 3859,  320
3362, 3820, 3821, 3860, 3859
3363, 3821, 3822, 3861, 3860
3364, 3822, 3823, 3862, 3861
3365, 3823, 3824, 3863, 3862
3366, 3824, 3825, 3864, 3863
3367, 3825, 3826, 3865, 3864
3368, 3826, 3827, 3866, 3865
3369, 3827, 3828, 3867, 3866
3370, 3828, 3829, 3868, 3867
3371, 3829, 3830, 3869, 3868
3372, 3830, 3831, 3870, 3869
3373, 3831, 3832, 3871, 3870
3374, 3832, 3833, 3872, 3871
3375, 3833, 3834, 3873, 3872
3376, 3834, 3835, 3874, 3873
3377, 3835, 3836, 3875, 3874
3378, 3836, 3837, 3876, 3875
3379, 3837, 3838, 3877, 3876
3380, 3838, 3839, 3878, 3877
3381, 3839, 3840, 3879, 3878
3382, 3840, 3841, 3880, 3879
3383, 3841, 3842, 3881, 3880
3384, 3842, 3843, 3882, 3881
3385, 3843, 3844, 3883, 3882
3386, 3844, 3845, 3884, 3883
3387, 3845, 3846, 3885, 3884
3388, 3846, 3847, 3886, 3885
3389, 3847, 3848, 3887, 3886
3390, 3848, 3849, 3888, 3887
3391, 3849, 3850, 3889, 3888
3392, 3850, 3851, 3890, 3889
3393, 3851, 3852, 3891, 3890
3394, 3852, 3853, 3892, 3891
3395, 3853, 3854, 3893, 3892
3396, 3854, 3855, 3894, 3893
3397, 3855, 3856, 3895, 3894
3398, 3856, 3857, 3896, 3895
3399, 3857, 3858, 3897, 3896
3400, 3858,  131,  132, 3897
3401,  320, 3859, 3898,  319
3402, 3859, 3860, 3899, 3898
3403, 3860, 3861, 3900, 3899
3404, 3861, 3862, 3901, 3900
3405, 3862, 3863, 3902, 3901
3406, 3863, 3864, 3903, 3902
3407, 3864, 3865, 3904, 3903
3408, 3865, 3866, 3905, 3904
3409, 3866, 3867, 3906, 3905
3410, 3867, 3868, 3907, 3906
3411, 3868, 3869, 3908, 3907
3412, 3869, 3870, 3909, 3908
3413, 3870, 3871, 3910, 3909
3414, 3871, 3872, 3911, 3910
3415, 3872, 3873, 3912, 3911
3416, 3873, 3874, 3913, 3912
3417, 3874, 3875, 3914, 3913
3418, 3875, 3876, 3915, 3914
3419, 3876, 3877, 3916, 3915
3420, 3877, 3878, 3917, 3916
3421, 3878, 3879, 3918, 3917
3422, 3879, 3880, 3919, 3918
3423, 3880, 3881, 3920, 3919
3424, 3881, 3882, 3921, 3920
3425, 3882, 3883, 3922, 3921
3426, 3883, 3884, 3923, 3922
3427, 3884, 3885, 3924, 3923
3428, 3885, 3886, 3925, 3924
3429, 3886, 3887, 3926, 3925
3430, 3887, 3888, 3927, 3926
3431, 3888, 3889, 3928, 3927
3432, 3889, 3890, 3929, 3928
3433, 3890, 3891, 3930, 3929
3434, 3891, 3892, 3931, 3930
3435, 3892, 3893, 3932, 3931
3436, 3893, 3894, 3933, 3932
3437, 3894, 3895, 3934, 3933
3438, 3895, 3896, 3935, 3934
3439, 3896, 3897, 3936, 3935
3440, 3897,  132,  133, 3936
3441,  319, 3898, 3937,  318
3442, 3898, 3899, 3938, 3937
3443, 3899, 3900, 3939, 3938
3444, 3900, 3901, 3940, 3939
3445, 3901, 3902, 3941, 3940
3446, 3902, 3903, 3942, 3941
3447, 3903, 3904, 3943, 3942
3448, 3904, 3905, 3944, 3943
3449, 3905, 3906, 3945, 3944
3450, 3906, 3907, 3946, 3945
3451, 3907, 3908, 3947, 3946
3452, 3908, 3909, 3948, 3947
3453, 3909, 3910, 3949, 3948
3454, 3910, 3911, 3950, 3949
3455, 3911, 3912, 3951, 3950
3456, 3912, 3913, 3952, 3951
3457, 3913, 3914, 3953, 3952
3458, 3914, 3915, 3954, 3953
3459, 3915, 3916, 3955, 3954
3460, 3916, 3917, 3956, 3955
3461, 3917, 3918, 3957, 3956
3462, 3918, 3919, 3958, 3957
3463, 3919, 3920, 3959, 3958
3464, 3920, 3921, 3960, 3959
3465, 3921, 3922, 3961, 3960
3466, 3922, 3923, 3962, 3961
3467, 3923, 3924, 3963, 3962
3468, 3924, 3925, 3964, 3963
3469, 3925, 3926, 3965, 3964
3470, 3926, 3927, 3966, 3965
3471, 3927, 3928, 3967, 3966
3472, 3928, 3929, 3968, 3967
3473, 3929, 3930, 3969, 3968
3474, 3930, 3931, 3970, 3969
3475, 3931, 3932, 3971, 3970
3476, 3932, 3933, 3972, 3971
3477, 3933, 3934, 3973, 3972
3478, 3934, 3935, 3974, 3973
3479, 3935, 3936, 3975, 3974
3480, 3936,  133,  134, 3975
3481,  318, 3937, 3976,  317
3482, 3937, 3938, 3977, 3976
3483, 3938, 3939, 3978, 3977
3484, 3939, 3940, 3979, 3978
3485, 3940, 3941, 3980, 3979
3486, 3941, 3942, 3981, 3980
3487, 3942, 3943, 3982, 3981
3488, 3943, 3944, 3983, 3982
3489, 3944, 3945, 3984, 3983
3490, 3945, 3946, 3985, 3984
3491, 3946, 3947, 3986, 3985
3492, 3947, 3948, 3987, 3986
3493, 3948, 3949, 3988, 3987
3494, 3949, 3950, 3989, 3988
3495, 3950, 3951, 3990, 3989
3496, 3951, 3952, 3991, 3990
3497, 3952, 3953, 3992, 3991
3498, 3953, 3954, 3993, 3992
3499, 3954, 3955, 3994, 3993
3500, 3955, 3956, 3995, 3994
3501, 3956, 3957, 3996, 3995
3502, 3957, 3958, 3997, 3996
3503, 3958, 3959, 3998, 3997
3504, 3959, 3960, 3999, 3998
3505, 3960, 3961, 4000, 3999
3506, 3961, 3962, 4001, 4000
3507, 3962, 3963, 4002, 4001
3508, 3963, 3964, 4003, 4002
3509, 3964, 3965, 4004, 4003
3510, 3965, 3966, 4005, 4004
3511, 3966, 3967, 4006, 4005
3512, 3967, 3968, 4007, 4006
3513, 3968, 3969, 4008, 4007
3514, 3969, 3970, 4009, 4008
3515, 3970, 3971, 4010, 4009
3516, 3971, 3972, 4011, 4010
3517, 3972, 3973, 4012, 4011
3518, 3973, 3974, 4013, 4012
3519, 3974, 3975, 4014, 4013
3520, 3975,  134,  135, 4014
3521,  317, 3976, 4015,  316
3522, 3976, 3977, 4016, 4015
3523, 3977, 3978, 4017, 4016
3524, 3978, 3979, 4018, 4017
3525, 3979, 3980, 4019, 4018
3526, 3980, 3981, 4020, 4019
3527, 3981, 3982, 4021, 4020
3528, 3982, 3983, 4022, 4021
3529, 3983, 3984, 4023, 4022
3530, 3984, 3985, 4024, 4023
3531, 3985, 3986, 4025, 4024
3532, 3986, 3987, 4026, 4025
3533, 3987, 3988, 4027, 4026
3534, 3988, 3989, 4028, 4027
3535, 3989, 3990, 4029, 4028
3536, 3990, 3991, 4030, 4029
3537, 3991, 3992, 4031, 4030
3538, 3992, 3993, 4032, 4031
3539, 3993, 3994, 4033, 4032
3540, 3994, 3995, 4034, 4033
3541, 3995, 3996, 4035, 4034
3542, 3996, 3997, 4036, 4035
3543, 3997, 3998, 4037, 4036
3544, 3998, 3999, 4038, 4037
3545, 3999, 4000, 4039, 4038
3546, 4000, 4001, 4040, 4039
3547, 4001, 4002, 4041, 4040
3548, 4002, 4003, 4042, 4041
3549, 4003, 4004, 4043, 4042
3550, 4004, 4005, 4044, 4043
3551, 4005, 4006, 4045, 4044
3552, 4006, 4007, 4046, 4045
3553, 4007, 4008, 4047, 4046
3554, 4008, 4009, 4048, 4047
3555, 4009, 4010, 4049, 4048
3556, 4010, 4011, 4050, 4049
3557, 4011, 4012, 4051, 4050
3558, 4012, 4013, 4052, 4051
3559, 4013, 4014, 4053, 4052
3560, 4014,  135,  136, 4053
3561,  316, 4015, 4054,  315
3562, 4015, 4016, 4055, 4054
3563, 4016, 4017, 4056, 4055
3564, 4017, 4018, 4057, 4056
3565, 4018, 4019, 4058, 4057
3566, 4019, 4020, 4059, 4058
3567, 4020, 4021, 4060, 4059
3568, 4021, 4022, 4061, 4060
3569, 4022, 4023, 4062, 4061
3570, 4023, 4024, 4063, 4062
3571, 4024, 4025, 4064, 4063
3572, 4025, 4026, 4065, 4064
3573, 4026, 4027, 4066, 4065
3574, 4027, 4028, 4067, 4066
3575, 4028, 4029, 4068, 4067
3576, 4029, 4030, 4069, 4068
3577, 4030, 4031, 4070, 4069
3578, 4031, 4032, 4071, 4070
3579, 4032, 4033, 4072, 4071
3580, 4033, 4034, 4073, 4072
3581, 4034, 4035, 4074, 4073
3582, 4035, 4036, 4075, 4074
3583, 4036, 4037, 4076, 4075
3584, 4037, 4038, 4077, 4076
3585, 4038, 4039, 4078, 4077
3586, 4039, 4040, 4079, 4078
3587, 4040, 4041, 4080, 4079
3588, 4041, 4042, 4081, 4080
3589, 4042, 4043, 4082, 4081
3590, 4043, 4044, 4083, 4082
3591, 4044, 4045, 4084, 4083
3592, 4045, 4046, 4085, 4084
3593, 4046, 4047, 4086, 4085
3594, 4047, 4048, 4087, 4086
3595, 4048, 4049, 4088, 4087
3596, 4049, 4050, 4089, 4088
3597, 4050, 4051, 4090, 4089
3598, 4051, 4052, 4091, 4090
3599, 4052, 4053, 4092, 4091
3600, 4053,  136,  137, 4092
3601,  315, 4054, 4093,  314
3602, 4054, 4055, 4094, 4093
3603, 4055, 4056, 4095, 4094
3604, 4056, 4057, 4096, 4095
3605, 4057, 4058, 4097, 4096
3606, 4058, 4059, 4098, 4097
3607, 4059, 4060, 4099, 4098
3608, 4060, 4061, 4100, 4099
3609, 4061, 4062, 4101, 4100
3610, 4062, 4063, 4102, 4101
3611, 4063, 4064, 4103, 4102
3612, 4064, 4065, 4104, 4103
3613, 4065, 4066, 4105, 4104
3614, 4066, 4067, 4106, 4105
3615, 4067, 4068, 4107, 4106
3616, 4068, 4069, 4108, 4107
3617, 4069, 4070, 4109, 4108
3618, 4070, 4071, 4110, 4109
3619, 4071, 4072, 4111, 4110
3620, 4072, 4073, 4112, 4111
3621, 4073, 4074, 4113, 4112
3622, 4074, 4075, 4114, 4113
3623, 4075, 4076, 4115, 4114
3624, 4076, 4077, 4116, 4115
3625, 4077, 4078, 4117, 4116
3626, 4078, 4079, 4118, 4117
3627, 4079, 4080, 4119, 4118
3628, 4080, 4081, 4120, 4119
3629, 4081, 4082, 4121, 4120
3630, 4082, 4083, 4122, 4121
3631, 4083, 4084, 4123, 4122
3632, 4084, 4085, 4124, 4123
3633, 4085, 4086, 4125, 4124
3634, 4086, 4087, 4126, 4125
3635, 4087, 4088, 4127, 4126
3636, 4088, 4089, 4128, 4127
3637, 4089, 4090, 4129, 4128
3638, 4090, 4091, 4130, 4129
3639, 4091, 4092, 4131, 4130
3640, 4092,  137,  138, 4131
3641,  314, 4093, 4132,  313
3642, 4093, 4094, 4133, 4132
3643, 4094, 4095, 4134, 4133
3644, 4095, 4096, 4135, 4134
3645, 4096, 4097, 4136, 4135
3646, 4097, 4098, 4137, 4136
3647, 4098, 4099, 4138, 4137
3648, 4099, 4100, 4139, 4138
3649, 4100, 4101, 4140, 4139
3650, 4101, 4102, 4141, 4140
3651, 4102, 4103, 4142, 4141
3652, 4103, 4104, 4143, 4142
3653, 4104, 4105, 4144, 4143
3654, 4105, 4106, 4145, 4144
3655, 4106, 4107, 4146, 4145
3656, 4107, 4108, 4147, 4146
3657, 4108, 4109, 4148, 4147
3658, 4109, 4110, 4149, 4148
3659, 4110, 4111, 4150, 4149
3660, 4111, 4112, 4151, 4150
3661, 4112, 4113, 4152, 4151
3662, 4113, 4114, 4153, 4152
3663, 4114, 4115, 4154, 4153
3664, 4115, 4116, 4155, 4154
3665, 4116, 4117, 4156, 4155
3666, 4117, 4118, 4157, 4156
3667, 4118, 4119, 4158, 4157
3668, 4119, 4120, 4159, 4158
3669, 4120, 4121, 4160, 4159
3670, 4121, 4122, 4161, 4160
3671, 4122, 4123, 4162, 4161
3672, 4123, 4124, 4163, 4162
3673, 4124, 4125, 4164, 4163
3674, 4125, 4126, 4165, 4164
3675, 4126, 4127, 4166, 4165
3676, 4127, 4128, 4167, 4166
3677, 4128, 4129, 4168, 4167
3678, 4129, 4130, 4169, 4168
3679, 4130, 4131, 4170, 4169
3680, 4131,  138,  139, 4170
3681,  313, 4132, 4171,  312
3682, 4132, 4133, 4172, 4171
3683, 4133, 4134, 4173, 4172
3684, 4134, 4135, 4174, 4173
3685, 4135, 4136, 4175, 4174
3686, 4136, 4137, 4176, 4175
3687, 4137, 4138, 4177, 4176
3688, 4138, 4139, 4178, 4177
3689, 4139, 4140, 4179, 4178
3690, 4140, 4141, 4180, 4179
3691, 4141, 4142, 4181, 4180
3692, 4142, 4143, 4182, 4181
3693, 4143, 4144, 4183, 4182
3694, 4144, 4145, 4184, 4183
3695, 4145, 4146, 4185, 4184
3696, 4146, 4147, 4186, 4185
3697, 4147, 4148, 4187, 4186
3698, 4148, 4149, 4188, 4187
3699, 4149, 4150, 4189, 4188
3700, 4150, 4151, 4190, 4189
3701, 4151, 4152, 4191, 4190
3702, 4152, 4153, 4192, 4191
3703, 4153, 4154, 4193, 4192
3704, 4154, 4155, 4194, 4193
3705, 4155, 4156, 4195, 4194
3706, 4156, 4157, 4196, 4195
3707, 4157, 4158, 4197, 4196
3708, 4158, 4159, 4198, 4197
3709, 4159, 4160, 4199, 4198
3710, 4160, 4161, 4200, 4199
3711, 4161, 4162, 4201, 4200
3712, 4162, 4163, 4202, 4201
3713, 4163, 4164, 4203, 4202
3714, 4164, 4165, 4204, 4203
3715, 4165, 4166, 4205, 4204
3716, 4166, 4167, 4206, 4205
3717, 4167, 4168, 4207, 4206
3718, 4168, 4169, 4208, 4207
3719, 4169, 4170, 4209, 4208
3720, 4170,  139,  140, 4209
3721,  312, 4171, 4210,  311
3722, 4171, 4172, 4211, 4210
3723, 4172, 4173, 4212, 4211
3724, 4173, 4174, 4213, 4212
3725, 4174, 4175, 4214, 4213
3726, 4175, 4176, 4215, 4214
3727, 4176, 4177, 4216, 4215
3728, 4177, 4178, 4217, 4216
3729, 4178, 4179, 4218, 4217
3730, 4179, 4180, 4219, 4218
3731, 4180, 4181, 4220, 4219
3732, 4181, 4182, 4221, 4220
3733, 4182, 4183, 4222, 4221
3734, 4183, 4184, 4223, 4222
3735, 4184, 4185, 4224, 4223
3736, 4185, 4186, 4225, 4224
3737, 4186, 4187, 4226, 4225
3738, 4187, 4188, 4227, 4226
3739, 4188, 4189, 4228, 4227
3740, 4189, 4190, 4229, 4228
3741, 4190, 4191, 4230, 4229
3742, 4191, 4192, 4231, 4230
3743, 4192, 4193, 4232, 4231
3744, 4193, 4194, 4233, 4232
3745, 4194, 4195, 4234, 4233
3746, 4195, 4196, 4235, 4234
3747, 4196, 4197, 4236, 4235
3748, 4197, 4198, 4237, 4236
3749, 4198, 4199, 4238, 4237
3750, 4199, 4200, 4239, 4238
3751, 4200, 4201, 4240, 4239
3752, 4201, 4202, 4241, 4240
3753, 4202, 4203, 4242, 4241
3754, 4203, 4204, 4243, 4242
3755, 4204, 4205, 4244, 4243
3756, 4205, 4206, 4245, 4244
3757, 4206, 4207, 4246, 4245
3758, 4207, 4208, 4247, 4246
3759, 4208, 4209, 4248, 4247
3760, 4209,  140,  141, 4248
3761,  311, 4210, 4249,  310
3762, 4210, 4211, 4250, 4249
3763, 4211, 4212, 4251, 4250
3764, 4212, 4213, 4252, 4251
3765, 4213, 4214, 4253, 4252
3766, 4214, 4215, 4254, 4253
3767, 4215, 4216, 4255, 4254
3768, 4216, 4217, 4256, 4255
3769, 4217, 4218, 4257, 4256
3770, 4218, 4219, 4258, 4257
3771, 4219, 4220, 4259, 4258
3772, 4220, 4221, 4260, 4259
3773, 4221, 4222, 4261, 4260
3774, 4222, 4223, 4262, 4261
3775, 4223, 4224, 4263, 4262
3776, 4224, 4225, 4264, 4263
3777, 4225, 4226, 4265, 4264
3778, 4226, 4227, 4266, 4265
3779, 4227, 4228, 4267, 4266
3780, 4228, 4229, 4268, 4267
3781, 4229, 4230, 4269, 4268
3782, 4230, 4231, 4270, 4269
3783, 4231, 4232, 4271, 4270
3784, 4232, 4233, 4272, 4271
3785, 4233, 4234, 4273, 4272
3786, 4234, 4235, 4274, 4273
3787, 4235, 4236, 4275, 4274
3788, 4236, 4237, 4276, 4275
3789, 4237, 4238, 4277, 4276
3790, 4238, 4239, 4278, 4277
3791, 4239, 4240, 4279, 4278
3792, 4240, 4241, 4280, 4279
3793, 4241, 4242, 4281, 4280
3794, 4242, 4243, 4282, 4281
3795, 4243, 4244, 4283, 4282
3796, 4244, 4245, 4284, 4283
3797, 4245, 4246, 4285, 4284
3798, 4246, 4247, 4286, 4285
3799, 4247, 4248, 4287, 4286
3800, 4248,  141,  142, 4287
3801,  310, 4249, 4288,  309
3802, 4249, 4250, 4289, 4288
3803, 4250, 4251, 4290, 4289
3804, 4251, 4252, 4291, 4290
3805, 4252, 4253, 4292, 4291
3806, 4253, 4254, 4293, 4292
3807, 4254, 4255, 4294, 4293
3808, 4255, 4256, 4295, 4294
3809, 4256, 4257, 4296, 4295
3810, 4257, 4258, 4297, 4296
3811, 4258, 4259, 4298, 4297
3812, 4259, 4260, 4299, 4298
3813, 4260, 4261, 4300, 4299
3814, 4261, 4262, 4301, 4300
3815, 4262, 4263, 4302, 4301
3816, 4263, 4264, 4303, 4302
3817, 4264, 4265, 4304, 4303
3818, 4265, 4266, 4305, 4304
3819, 4266, 4267, 4306, 4305
3820, 4267, 4268, 4307, 4306
3821, 4268, 4269, 4308, 4307
3822, 4269, 4270, 4309, 4308
3823, 4270, 4271, 4310, 4309
3824, 4271, 4272, 4311, 4310
3825, 4272, 4273, 4312, 4311
3826, 4273, 4274, 4313, 4312
3827, 4274, 4275, 4314, 4313
3828, 4275, 4276, 4315, 4314
3829, 4276, 4277, 4316, 4315
3830, 4277, 4278, 4317, 4316
3831, 4278, 4279, 4318, 4317
3832, 4279, 4280, 4319, 4318
3833, 4280, 4281, 4320, 4319
3834, 4281, 4282, 4321, 4320
3835, 4282, 4283, 4322, 4321
3836, 4283, 4284, 4323, 4322
3837, 4284, 4285, 4324, 4323
3838, 4285, 4286, 4325, 4324
3839, 4286, 4287, 4326, 4325
3840, 4287,  142,  143, 4326
3841,  309, 4288, 4327,  308
3842, 4288, 4289, 4328, 4327
3843, 4289, 4290, 4329, 4328
3844, 4290, 4291, 4330, 4329
3845, 4291, 4292, 4331, 4330
3846, 4292, 4293, 4332, 4331
3847, 4293, 4294, 4333, 4332
3848, 4294, 4295, 4334, 4333
3849, 4295, 4296, 4335, 4334
3850, 4296, 4297, 4336, 4335
3851, 4297, 4298, 4337, 4336
3852, 4298, 4299, 4338, 4337
3853, 4299, 4300, 4339, 4338
3854, 4300, 4301, 4340, 4339
3855, 4301, 4302, 4341, 4340
3856, 4302, 4303, 4342, 4341
3857, 4303, 4304, 4343, 4342
3858, 4304, 4305, 4344, 4343
3859, 4305, 4306, 4345, 4344
3860, 4306, 4307, 4346, 4345
3861, 4307, 4308, 4347, 4346
3862, 4308, 4309, 4348, 4347
3863, 4309, 4310, 4349, 4348
3864, 4310, 4311, 4350, 4349
3865, 4311, 4312, 4351, 4350
3866, 4312, 4313, 4352, 4351
3867, 4313, 4314, 4353, 4352
3868, 4314, 4315, 4354, 4353
3869, 4315, 4316, 4355, 4354
3870, 4316, 4317, 4356, 4355
3871, 4317, 4318, 4357, 4356
3872, 4318, 4319, 4358, 4357
3873, 4319, 4320, 4359, 4358
3874, 4320, 4321, 4360, 4359
3875, 4321, 4322, 4361, 4360
3876, 4322, 4323, 4362, 4361
3877, 4323, 4324, 4363, 4362
3878, 4324, 4325, 4364, 4363
3879, 4325, 4326, 4365, 4364
3880, 4326,  143,  144, 4365
3881,  308, 4327, 4366,  307
3882, 4327, 4328, 4367, 4366
3883, 4328, 4329, 4368, 4367
3884, 4329, 4330, 4369, 4368
3885, 4330, 4331, 4370, 4369
3886, 4331, 4332, 4371, 4370
3887, 4332, 4333, 4372, 4371
3888, 4333, 4334, 4373, 4372
3889, 4334, 4335, 4374, 4373
3890, 4335, 4336, 4375, 4374
3891, 4336, 4337, 4376, 4375
3892, 4337, 4338, 4377, 4376
3893, 4338, 4339, 4378, 4377
3894, 4339, 4340, 4379, 4378
3895, 4340, 4341, 4380, 4379
3896, 4341, 4342, 4381, 4380
3897, 4342, 4343, 4382, 4381
3898, 4343, 4344, 4383, 4382
3899, 4344, 4345, 4384, 4383
3900, 4345, 4346, 4385, 4384
3901, 4346, 4347, 4386, 4385
3902, 4347, 4348, 4387, 4386
3903, 4348, 4349, 4388, 4387
3904, 4349, 4350, 4389, 4388
3905, 4350, 4351, 4390, 4389
3906, 4351, 4352, 4391, 4390
3907, 4352, 4353, 4392, 4391
3908, 4353, 4354, 4393, 4392
3909, 4354, 4355, 4394, 4393
3910, 4355, 4356, 4395, 4394
3911, 4356, 4357, 4396, 4395
3912, 4357, 4358, 4397, 4396
3913, 4358, 4359, 4398, 4397
3914, 4359, 4360, 4399, 4398
3915, 4360, 4361, 4400, 4399
3916, 4361, 4362, 4401, 4400
3917, 4362, 4363, 4402, 4401
3918, 4363, 4364, 4403, 4402
3919, 4364, 4365, 4404, 4403
3920, 4365,  144,  145, 4404
3921,  307, 4366, 4405,  306
3922, 4366, 4367, 4406, 4405
3923, 4367, 4368, 4407, 4406
3924, 4368, 4369, 4408, 4407
3925, 4369, 4370, 4409, 4408
3926, 4370, 4371, 4410, 4409
3927, 4371, 4372, 4411, 4410
3928, 4372, 4373, 4412, 4411
3929, 4373, 4374, 4413, 4412
3930, 4374, 4375, 4414, 4413
3931, 4375, 4376, 4415, 4414
3932, 4376, 4377, 4416, 4415
3933, 4377, 4378, 4417, 4416
3934, 4378, 4379, 4418, 4417
3935, 4379, 4380, 4419, 4418
3936, 4380, 4381, 4420, 4419
3937, 4381, 4382, 4421, 4420
3938, 4382, 4383, 4422, 4421
3939, 4383, 4384, 4423, 4422
3940, 4384, 4385, 4424, 4423
3941, 4385, 4386, 4425, 4424
3942, 4386, 4387, 4426, 4425
3943, 4387, 4388, 4427, 4426
3944, 4388, 4389, 4428, 4427
3945, 4389, 4390, 4429, 4428
3946, 4390, 4391, 4430, 4429
3947, 4391, 4392, 4431, 4430
3948, 4392, 4393, 4432, 4431
3949, 4393, 4394, 4433, 4432
3950, 4394, 4395, 4434, 4433
3951, 4395, 4396, 4435, 4434
3952, 4396, 4397, 4436, 4435
3953, 4397, 4398, 4437, 4436
3954, 4398, 4399, 4438, 4437
3955, 4399, 4400, 4439, 4438
3956, 4400, 4401, 4440, 4439
3957, 4401, 4402, 4441, 4440
3958, 4402, 4403, 4442, 4441
3959, 4403, 4404, 4443, 4442
3960, 4404,  145,  146, 4443
3961,  306, 4405, 4444,  305
3962, 4405, 4406, 4445, 4444
3963, 4406, 4407, 4446, 4445
3964, 4407, 4408, 4447, 4446
3965, 4408, 4409, 4448, 4447
3966, 4409, 4410, 4449, 4448
3967, 4410, 4411, 4450, 4449
3968, 4411, 4412, 4451, 4450
3969, 4412, 4413, 4452, 4451
3970, 4413, 4414, 4453, 4452
3971, 4414, 4415, 4454, 4453
3972, 4415, 4416, 4455, 4454
3973, 4416, 4417, 4456, 4455
3974, 4417, 4418, 4457, 4456
3975, 4418, 4419, 4458, 4457
3976, 4419, 4420, 4459, 4458
3977, 4420, 4421, 4460, 4459
3978, 4421, 4422, 4461, 4460
3979, 4422, 4423, 4462, 4461
3980, 4423, 4424, 4463, 4462
3981, 4424, 4425, 4464, 4463
3982, 4425, 4426, 4465, 4464
3983, 4426, 4427, 4466, 4465
3984, 4427, 4428, 4467, 4466
3985, 4428, 4429, 4468, 4467
3986, 4429, 4430, 4469, 4468
3987, 4430, 4431, 4470, 4469
3988, 4431, 4432, 4471, 4470
3989, 4432, 4433, 4472, 4471
3990, 4433, 4434, 4473, 4472
3991, 4434, 4435, 4474, 4473
3992, 4435, 4436, 4475, 4474
3993, 4436, 4437, 4476, 4475
3994, 4437, 4438, 4477, 4476
3995, 4438, 4439, 4478, 4477
3996, 4439, 4440, 4479, 4478
3997, 4440, 4441, 4480, 4479
3998, 4441, 4442, 4481, 4480
3999, 4442, 4443, 4482, 4481
4000, 4443,  146,  147, 4482
4001,  305, 4444, 4483,  304
4002, 4444, 4445, 4484, 4483
4003, 4445, 4446, 4485, 4484
4004, 4446, 4447, 4486, 4485
4005, 4447, 4448, 4487, 4486
4006, 4448, 4449, 4488, 4487
4007, 4449, 4450, 4489, 4488
4008, 4450, 4451, 4490, 4489
4009, 4451, 4452, 4491, 4490
4010, 4452, 4453, 4492, 4491
4011, 4453, 4454, 4493, 4492
4012, 4454, 4455, 4494, 4493
4013, 4455, 4456, 4495, 4494
4014, 4456, 4457, 4496, 4495
4015, 4457, 4458, 4497, 4496
4016, 4458, 4459, 4498, 4497
4017, 4459, 4460, 4499, 4498
4018, 4460, 4461, 4500, 4499
4019, 4461, 4462, 4501, 4500
4020, 4462, 4463, 4502, 4501
4021, 4463, 4464, 4503, 4502
4022, 4464, 4465, 4504, 4503
4023, 4465, 4466, 4505, 4504
4024, 4466, 4467, 4506, 4505
4025, 4467, 4468, 4507, 4506
4026, 4468, 4469, 4508, 4507
4027, 4469, 4470, 4509, 4508
4028, 4470, 4471, 4510, 4509
4029, 4471, 4472, 4511, 4510
4030, 4472, 4473, 4512, 4511
4031, 4473, 4474, 4513, 4512
4032, 4474, 4475, 4514, 4513
4033, 4475, 4476, 4515, 4514
4034, 4476, 4477, 4516, 4515
4035, 4477, 4478, 4517, 4516
4036, 4478, 4479, 4518, 4517
4037, 4479, 4480, 4519, 4518
4038, 4480, 4481, 4520, 4519
4039, 4481, 4482, 4521, 4520
4040, 4482,  147,  148, 4521
4041,  304, 4483, 4522,  303
4042, 4483, 4484, 4523, 4522
4043, 4484, 4485, 4524, 4523
4044, 4485, 4486, 4525, 4524
4045, 4486, 4487, 4526, 4525
4046, 4487, 4488, 4527, 4526
4047, 4488, 4489, 4528, 4527
4048, 4489, 4490, 4529, 4528
4049, 4490, 4491, 4530, 4529
4050, 4491, 4492, 4531, 4530
4051, 4492, 4493, 4532, 4531
4052, 4493, 4494, 4533, 4532
4053, 4494, 4495, 4534, 4533
4054, 4495, 4496, 4535, 4534
4055, 4496, 4497, 4536, 4535
4056, 4497, 4498, 4537, 4536
4057, 4498, 4499, 4538, 4537
4058, 4499, 4500, 4539, 4538
4059, 4500, 4501, 4540, 4539
4060, 4501, 4502, 4541, 4540
4061, 4502, 4503, 4542, 4541
4062, 4503, 4504, 4543, 4542
4063, 4504, 4505, 4544, 4543
4064, 4505, 4506, 4545, 4544
4065, 4506, 4507, 4546, 4545
4066, 4507, 4508, 4547, 4546
4067, 4508, 4509, 4548, 4547
4068, 4509, 4510, 4549, 4548
4069, 4510, 4511, 4550, 4549
4070, 4511, 4512, 4551, 4550
4071, 4512, 4513, 4552, 4551
4072, 4513, 4514, 4553, 4552
4073, 4514, 4515, 4554, 4553
4074, 4515, 4516, 4555, 4554
4075, 4516, 4517, 4556, 4555
4076, 4517, 4518, 4557, 4556
4077, 4518, 4519, 4558, 4557
4078, 4519, 4520, 4559, 4558
4079, 4520, 4521, 4560, 4559
4080, 4521,  148,  149, 4560
4081,  303, 4522, 4561,  302
4082, 4522, 4523, 4562, 4561
4083, 4523, 4524, 4563, 4562
4084, 4524, 4525, 4564, 4563
4085, 4525, 4526, 4565, 4564
4086, 4526, 4527, 4566, 4565
4087, 4527, 4528, 4567, 4566
4088, 4528, 4529, 4568, 4567
4089, 4529, 4530, 4569, 4568
4090, 4530, 4531, 4570, 4569
4091, 4531, 4532, 4571, 4570
4092, 4532, 4533, 4572, 4571
4093, 4533, 4534, 4573, 4572
4094, 4534, 4535, 4574, 4573
4095, 4535, 4536, 4575, 4574
4096, 4536, 4537, 4576, 4575
4097, 4537, 4538, 4577, 4576
4098, 4538, 4539, 4578, 4577
4099, 4539, 4540, 4579, 4578
4100, 4540, 4541, 4580, 4579
4101, 4541, 4542, 4581, 4580
4102, 4542, 4543, 4582, 4581
4103, 4543, 4544, 4583, 4582
4104, 4544, 4545, 4584, 4583
4105, 4545, 4546, 4585, 4584
4106, 4546, 4547, 4586, 4585
4107, 4547, 4548, 4587, 4586
4108, 4548, 4549, 4588, 4587
4109, 4549, 4550, 4589, 4588
4110, 4550, 4551, 4590, 4589
4111, 4551, 4552, 4591, 4590
4112, 4552, 4553, 4592, 4591
4113, 4553, 4554, 4593, 4592
4114, 4554, 4555, 4594, 4593
4115, 4555, 4556, 4595, 4594
4116, 4556, 4557, 4596, 4595
4117, 4557, 4558, 4597, 4596
4118, 4558, 4559, 4598, 4597
4119, 4559, 4560, 4599, 4598
4120, 4560,  149,  150, 4599
4121,  302, 4561, 4600,  301
4122, 4561, 4562, 4601, 4600
4123, 4562, 4563, 4602, 4601
4124, 4563, 4564, 4603, 4602
4125, 4564, 4565, 4604, 4603
4126, 4565, 4566, 4605, 4604
4127, 4566, 4567, 4606, 4605
4128, 4567, 4568, 4607, 4606
4129, 4568, 4569, 4608, 4607
4130, 4569, 4570, 4609, 4608
4131, 4570, 4571, 4610, 4609
4132, 4571, 4572, 4611, 4610
4133, 4572, 4573, 4612, 4611
4134, 4573, 4574, 4613, 4612
4135, 4574, 4575, 4614, 4613
4136, 4575, 4576, 4615, 4614
4137, 4576, 4577, 4616, 4615
4138, 4577, 4578, 4617, 4616
4139, 4578, 4579, 4618, 4617
4140, 4579, 4580, 4619, 4618
4141, 4580, 4581, 4620, 4619
4142, 4581, 4582, 4621, 4620
4143, 4582, 4583, 4622, 4621
4144, 4583, 4584, 4623, 4622
4145, 4584, 4585, 4624, 4623
4146, 4585, 4586, 4625, 4624
4147, 4586, 4587, 4626, 4625
4148, 4587, 4588, 4627, 4626
4149, 4588, 4589, 4628, 4627
4150, 4589, 4590, 4629, 4628
4151, 4590, 4591, 4630, 4629
4152, 4591, 4592, 4631, 4630
4153, 4592, 4593, 4632, 4631
4154, 4593, 4594, 4633, 4632
4155, 4594, 4595, 4634, 4633
4156, 4595, 4596, 4635, 4634
4157, 4596, 4597, 4636, 4635
4158, 4597, 4598, 4637, 4636
4159, 4598, 4599, 4638, 4637
4160, 4599,  150,  151, 4638
4161,  301, 4600, 4639,  300
4162, 4600, 4601, 4640, 4639
4163, 4601, 4602, 4641, 4640
4164, 4602, 4603, 4642, 4641
4165, 4603, 4604, 4643, 4642
4166, 4604, 4605, 4644, 4643
4167, 4605, 4606, 4645, 4644
4168, 4606, 4607, 4646, 4645
4169, 4607, 4608, 4647, 4646
4170, 4608, 4609, 4648, 4647
4171, 4609, 4610, 4649, 4648
4172, 4610, 4611, 4650, 4649
4173, 4611, 4612, 4651, 4650
4174, 4612, 4613, 4652, 4651
4175, 4613, 4614, 4653, 4652
4176, 4614, 4615, 4654, 4653
4177, 4615, 4616, 4655, 4654
4178, 4616, 4617, 4656, 4655
4179, 4617, 4618, 4657, 4656
4180, 4618, 4619, 4658, 4657
4181, 4619, 4620, 4659, 4658
4182, 4620, 4621, 4660, 4659
4183, 4621, 4622, 4661, 4660
4184, 4622, 4623, 4662, 4661
4185, 4623, 4624, 4663, 4662
4186, 4624, 4625, 4664, 4663
4187, 4625, 4626, 4665, 4664
4188, 4626, 4627, 4666, 4665
4189, 4627, 4628, 4667, 4666
4190, 4628, 4629, 4668, 4667
4191, 4629, 4630, 4669, 4668
4192, 4630, 4631, 4670, 4669
4193, 4631, 4632, 4671, 4670
4194, 4632, 4633, 4672, 4671
4195, 4633, 4634, 4673, 4672
4196, 4634, 4635, 4674, 4673
4197, 4635, 4636, 4675, 4674
4198, 4636, 4637, 4676, 4675
4199, 4637, 4638, 4677, 4676
4200, 4638,  151,  152, 4677
4201,  300, 4639, 4678,  299
4202, 4639, 4640, 4679, 4678
4203, 4640, 4641, 4680, 4679
4204, 4641, 4642, 4681, 4680
4205, 4642, 4643, 4682, 4681
4206, 4643, 4644, 4683, 4682
4207, 4644, 4645, 4684, 4683
4208, 4645, 4646, 4685, 4684
4209, 4646, 4647, 4686, 4685
4210, 4647, 4648, 4687, 4686
4211, 4648, 4649, 4688, 4687
4212, 4649, 4650, 4689, 4688
4213, 4650, 4651, 4690, 4689
4214, 4651, 4652, 4691, 4690
4215, 4652, 4653, 4692, 4691
4216, 4653, 4654, 4693, 4692
4217, 4654, 4655, 4694, 4693
4218, 4655, 4656, 4695, 4694
4219, 4656, 4657, 4696, 4695
4220, 4657, 4658, 4697, 4696
4221, 4658, 4659, 4698, 4697
4222, 4659, 4660, 4699, 4698
4223, 4660, 4661, 4700, 4699
4224, 4661, 4662, 4701, 4700
4225, 4662, 4663, 4702, 4701
4226, 4663, 4664, 4703, 4702
4227, 4664, 4665, 4704, 4703
4228, 4665, 4666, 4705, 4704
4229, 4666, 4667, 4706, 4705
4230, 4667, 4668, 4707, 4706
4231, 4668, 4669, 4708, 4707
4232, 4669, 4670, 4709, 4708
4233, 4670, 4671, 4710, 4709
4234, 4671, 4672, 4711, 4710
4235, 4672, 4673, 4712, 4711
4236, 4673, 4674, 4713, 4712
4237, 4674, 4675, 4714, 4713
4238, 4675, 4676, 4715, 4714
4239, 4676, 4677, 4716, 4715
4240, 4677,  152,  153, 4716
4241,  299, 4678, 4717,  298
4242, 4678, 4679, 4718, 4717
4243, 4679, 4680, 4719, 4718
4244, 4680, 4681, 4720, 4719
4245, 4681, 4682, 4721, 4720
4246, 4682, 4683, 4722, 4721
4247, 4683, 4684, 4723, 4722
4248, 4684, 4685, 4724, 4723
4249, 4685, 4686, 4725, 4724
4250, 4686, 4687, 4726, 4725
4251, 4687, 4688, 4727, 4726
4252, 4688, 4689, 4728, 4727
4253, 4689, 4690, 4729, 4728
4254, 4690, 4691, 4730, 4729
4255, 4691, 4692, 4731, 4730
4256, 4692, 4693, 4732, 4731
4257, 4693, 4694, 4733, 4732
4258, 4694, 4695, 4734, 4733
4259, 4695, 4696, 4735, 4734
4260, 4696, 4697, 4736, 4735
4261, 4697, 4698, 4737, 4736
4262, 4698, 4699, 4738, 4737
4263, 4699, 4700, 4739, 4738
4264, 4700, 4701, 4740, 4739
4265, 4701, 4702, 4741, 4740
4266, 4702, 4703, 4742, 4741
4267, 4703, 4704, 4743, 4742
4268, 4704, 4705, 4744, 4743
4269, 4705, 4706, 4745, 4744
4270, 4706, 4707, 4746, 4745
4271, 4707, 4708, 4747, 4746
4272, 4708, 4709, 4748, 4747
4273, 4709, 4710, 4749, 4748
4274, 4710, 4711, 4750, 4749
4275, 4711, 4712, 4751, 4750
4276, 4712, 4713, 4752, 4751
4277, 4713, 4714, 4753, 4752
4278, 4714, 4715, 4754, 4753
4279, 4715, 4716, 4755, 4754
4280, 4716,  153,  154, 4755
4281,  298, 4717, 4756,  297
4282, 4717, 4718, 4757, 4756
4283, 4718, 4719, 4758, 4757
4284, 4719, 4720, 4759, 4758
4285, 4720, 4721, 4760, 4759
4286, 4721, 4722, 4761, 4760
4287, 4722, 4723, 4762, 4761
4288, 4723, 4724, 4763, 4762
4289, 4724, 4725, 4764, 4763
4290, 4725, 4726, 4765, 4764
4291, 4726, 4727, 4766, 4765
4292, 4727, 4728, 4767, 4766
4293, 4728, 4729, 4768, 4767
4294, 4729, 4730, 4769, 4768
4295, 4730, 4731, 4770, 4769
4296, 4731, 4732, 4771, 4770
4297, 4732, 4733, 4772, 4771
4298, 4733, 4734, 4773, 4772
4299, 4734, 4735, 4774, 4773
4300, 4735, 4736, 4775, 4774
4301, 4736, 4737, 4776, 4775
4302, 4737, 4738, 4777, 4776
4303, 4738, 4739, 4778, 4777
4304, 4739, 4740, 4779, 4778
4305, 4740, 4741, 4780, 4779
4306, 4741, 4742, 4781, 4780
4307, 4742, 4743, 4782, 4781
4308, 4743, 4744, 4783, 4782
4309, 4744, 4745, 4784, 4783
4310, 4745, 4746, 4785, 4784
4311, 4746, 4747, 4786, 4785
4312, 4747, 4748, 4787, 4786
4313, 4748, 4749, 4788, 4787
4314, 4749, 4750, 4789, 4788
4315, 4750, 4751, 4790, 4789
4316, 4751, 4752, 4791, 4790
4317, 4752, 4753, 4792, 4791
4318, 4753, 4754, 4793, 4792
4319, 4754, 4755, 4794, 4793
4320, 4755,  154,  155, 4794
4321,  297, 4756, 4795,  296
4322, 4756, 4757, 4796, 4795
4323, 4757, 4758, 4797, 4796
4324, 4758, 4759, 4798, 4797
4325, 4759, 4760, 4799, 4798
4326, 4760, 4761, 4800, 4799
4327, 4761, 4762, 4801, 4800
4328, 4762, 4763, 4802, 4801
4329, 4763, 4764, 4803, 4802
4330, 4764, 4765, 4804, 4803
4331, 4765, 4766, 4805, 4804
4332, 4766, 4767, 4806, 4805
4333, 4767, 4768, 4807, 4806
4334, 4768, 4769, 4808, 4807
4335, 4769, 4770, 4809, 4808
4336, 4770, 4771, 4810, 4809
4337, 4771, 4772, 4811, 4810
4338, 4772, 4773, 4812, 4811
4339, 4773, 4774, 4813, 4812
4340, 4774, 4775, 4814, 4813
4341, 4775, 4776, 4815, 4814
4342, 4776, 4777, 4816, 4815
4343, 4777, 4778, 4817, 4816
4344, 4778, 4779, 4818, 4817
4345, 4779, 4780, 4819, 4818
4346, 4780, 4781, 4820, 4819
4347, 4781, 4782, 4821, 4820
4348, 4782, 4783, 4822, 4821
4349, 4783, 4784, 4823, 4822
4350, 4784, 4785, 4824, 4823
4351, 4785, 4786, 4825, 4824
4352, 4786, 4787, 4826, 4825
4353, 4787, 4788, 4827, 4826
4354, 4788, 4789, 4828, 4827
4355, 4789, 4790, 4829, 4828
4356, 4790, 4791, 4830, 4829
4357, 4791, 4792, 4831, 4830
4358, 4792, 4793, 4832, 4831
4359, 4793, 4794, 4833, 4832
4360, 4794,  155,  156, 4833
4361,  296, 4795, 4834,  295
4362, 4795, 4796, 4835, 4834
4363, 4796, 4797, 4836, 4835
4364, 4797, 4798, 4837, 4836
4365, 4798, 4799, 4838, 4837
4366, 4799, 4800, 4839, 4838
4367, 4800, 4801, 4840, 4839
4368, 4801, 4802, 4841, 4840
4369, 4802, 4803, 4842, 4841
4370, 4803, 4804, 4843, 4842
4371, 4804, 4805, 4844, 4843
4372, 4805, 4806, 4845, 4844
4373, 4806, 4807, 4846, 4845
4374, 4807, 4808, 4847, 4846
4375, 4808, 4809, 4848, 4847
4376, 4809, 4810, 4849, 4848
4377, 4810, 4811, 4850, 4849
4378, 4811, 4812, 4851, 4850
4379, 4812, 4813, 4852, 4851
4380, 4813, 4814, 4853, 4852
4381, 4814, 4815, 4854, 4853
4382, 4815, 4816, 4855, 4854
4383, 4816, 4817, 4856, 4855
4384, 4817, 4818, 4857, 4856
4385, 4818, 4819, 4858, 4857
4386, 4819, 4820, 4859, 4858
4387, 4820, 4821, 4860, 4859
4388, 4821, 4822, 4861, 4860
4389, 4822, 4823, 4862, 4861
4390, 4823, 4824, 4863, 4862
4391, 4824, 4825, 4864, 4863
4392, 4825, 4826, 4865, 4864
4393, 4826, 4827, 4866, 4865
4394, 4827, 4828, 4867, 4866
4395, 4828, 4829, 4868, 4867
4396, 4829, 4830, 4869, 4868
4397, 4830, 4831, 4870, 4869
4398, 4831, 4832, 4871, 4870
4399, 4832, 4833, 4872, 4871
4400, 4833,  156,  157, 4872
4401,  295, 4834, 4873,  294
4402, 4834, 4835, 4874, 4873
4403, 4835, 4836, 4875, 4874
4404, 4836, 4837, 4876, 4875
4405, 4837, 4838, 4877, 4876
4406, 4838, 4839, 4878, 4877
4407, 4839, 4840, 4879, 4878
4408, 4840, 4841, 4880, 4879
4409, 4841, 4842, 4881, 4880
4410, 4842, 4843, 4882, 4881
4411, 4843, 4844, 4883, 4882
4412, 4844, 4845, 4884, 4883
4413, 4845, 4846, 4885, 4884
4414, 4846, 4847, 4886, 4885
4415, 4847, 4848, 4887, 4886
4416, 4848, 4849, 4888, 4887
4417, 4849, 4850, 4889, 4888
4418, 4850, 4851, 4890, 4889
4419, 4851, 4852, 4891, 4890
4420, 4852, 4853, 4892, 4891
4421, 4853, 4854, 4893, 4892
4422, 4854, 4855, 4894, 4893
4423, 4855, 4856, 4895, 4894
4424, 4856, 4857, 4896, 4895
4425, 4857, 4858, 4897, 4896
4426, 4858, 4859, 4898, 4897
4427, 4859, 4860, 4899, 4898
4428, 4860, 4861, 4900, 4899
4429, 4861, 4862, 4901, 4900
4430, 4862, 4863, 4902, 4901
4431, 4863, 4864, 4903, 4902
4432, 4864, 4865, 4904, 4903
4433, 4865, 4866, 4905, 4904
4434, 4866, 4867, 4906, 4905
4435, 4867, 4868, 4907, 4906
4436, 4868, 4869, 4908, 4907
4437, 4869, 4870, 4909, 4908
4438, 4870, 4871, 4910, 4909
4439, 4871, 4872, 4911, 4910
4440, 4872,  157,  158, 4911
4441,  294, 4873, 4912,  293
4442, 4873, 4874, 4913, 4912
4443, 4874, 4875, 4914, 4913
4444, 4875, 4876, 4915, 4914
4445, 4876, 4877, 4916, 4915
4446, 4877, 4878, 4917, 4916
4447, 4878, 4879, 4918, 4917
4448, 4879, 4880, 4919, 4918
4449, 4880, 4881, 4920, 4919
4450, 4881, 4882, 4921, 4920
4451, 4882, 4883, 4922, 4921
4452, 4883, 4884, 4923, 4922
4453, 4884, 4885, 4924, 4923
4454, 4885, 4886, 4925, 4924
4455, 4886, 4887, 4926, 4925
4456, 4887, 4888, 4927, 4926
4457, 4888, 4889, 4928, 4927
4458, 4889, 4890, 4929, 4928
4459, 4890, 4891, 4930, 4929
4460, 4891, 4892, 4931, 4930
4461, 4892, 4893, 4932, 4931
4462, 4893, 4894, 4933, 4932
4463, 4894, 4895, 4934, 4933
4464, 4895, 4896, 4935, 4934
4465, 4896, 4897, 4936, 4935
4466, 4897, 4898, 4937, 4936
4467, 4898, 4899, 4938, 4937
4468, 4899, 4900, 4939, 4938
4469, 4900, 4901, 4940, 4939
4470, 4901, 4902, 4941, 4940
4471, 4902, 4903, 4942, 4941
4472, 4903, 4904, 4943, 4942
4473, 4904, 4905, 4944, 4943
4474, 4905, 4906, 4945, 4944
4475, 4906, 4907, 4946, 4945
4476, 4907, 4908, 4947, 4946
4477, 4908, 4909, 4948, 4947
4478, 4909, 4910, 4949, 4948
4479, 4910, 4911, 4950, 4949
4480, 4911,  158,  159, 4950
4481,  293, 4912, 4951,  292
4482, 4912, 4913, 4952, 4951
4483, 4913, 4914, 4953, 4952
4484, 4914, 4915, 4954, 4953
4485, 4915, 4916, 4955, 4954
4486, 4916, 4917, 4956, 4955
4487, 4917, 4918, 4957, 4956
4488, 4918, 4919, 4958, 4957
4489, 4919, 4920, 4959, 4958
4490, 4920, 4921, 4960, 4959
4491, 4921, 4922, 4961, 4960
4492, 4922, 4923, 4962, 4961
4493, 4923, 4924, 4963, 4962
4494, 4924, 4925, 4964, 4963
4495, 4925, 4926, 4965, 4964
4496, 4926, 4927, 4966, 4965
4497, 4927, 4928, 4967, 4966
4498, 4928, 4929, 4968, 4967
4499, 4929, 4930, 4969, 4968
4500, 4930, 4931, 4970, 4969
4501, 4931, 4932, 4971, 4970
4502, 4932, 4933, 4972, 4971
4503, 4933, 4934, 4973, 4972
4504, 4934, 4935, 4974, 4973
4505, 4935, 4936, 4975, 4974
4506, 4936, 4937, 4976, 4975
4507, 4937, 4938, 4977, 4976
4508, 4938, 4939, 4978, 4977
4509, 4939, 4940, 4979, 4978
4510, 4940, 4941, 4980, 4979
4511, 4941, 4942, 4981, 4980
4512, 4942, 4943, 4982, 4981
4513, 4943, 4944, 4983, 4982
4514, 4944, 4945, 4984, 4983
4515, 4945, 4946, 4985, 4984
4516, 4946, 4947, 4986, 4985
4517, 4947, 4948, 4987, 4986
4518, 4948, 4949, 4988, 4987
4519, 4949, 4950, 4989, 4988
4520, 4950,  159,  160, 4989
4521,  292, 4951, 4990,  291
4522, 4951, 4952, 4991, 4990
4523, 4952, 4953, 4992, 4991
4524, 4953, 4954, 4993, 4992
4525, 4954, 4955, 4994, 4993
4526, 4955, 4956, 4995, 4994
4527, 4956, 4957, 4996, 4995
4528, 4957, 4958, 4997, 4996
4529, 4958, 4959, 4998, 4997
4530, 4959, 4960, 4999, 4998
4531, 4960, 4961, 5000, 4999
4532, 4961, 4962, 5001, 5000
4533, 4962, 4963, 5002, 5001
4534, 4963, 4964, 5003, 5002
4535, 4964, 4965, 5004, 5003
4536, 4965, 4966, 5005, 5004
4537, 4966, 4967, 5006, 5005
4538, 4967, 4968, 5007, 5006
4539, 4968, 4969, 5008, 5007
4540, 4969, 4970, 5009, 5008
4541, 4970, 4971, 5010, 5009
4542, 4971, 4972, 5011, 5010
4543, 4972, 4973, 5012, 5011
4544, 4973, 4974, 5013, 5012
4545, 4974, 4975, 5014, 5013
4546, 4975, 4976, 5015, 5014
4547, 4976, 4977, 5016, 5015
4548, 4977, 4978, 5017, 5016
4549, 4978, 4979, 5018, 5017
4550, 4979, 4980, 5019, 5018
4551, 4980, 4981, 5020, 5019
4552, 4981, 4982, 5021, 5020
4553, 4982, 4983, 5022, 5021
4554, 4983, 4984, 5023, 5022
4555, 4984, 4985, 5024, 5023
4556, 4985, 4986, 5025, 5024
4557, 4986, 4987, 5026, 5025
4558, 4987, 4988, 5027, 5026
4559, 4988, 4989, 5028, 5027
4560, 4989,  160,  161, 5028
4561,  291, 4990, 5029,  290
4562, 4990, 4991, 5030, 5029
4563, 4991, 4992, 5031, 5030
4564, 4992, 4993, 5032, 5031
4565, 4993, 4994, 5033, 5032
4566, 4994, 4995, 5034, 5033
4567, 4995, 4996, 5035, 5034
4568, 4996, 4997, 5036, 5035
4569, 4997, 4998, 5037, 5036
4570, 4998, 4999, 5038, 5037
4571, 4999, 5000, 5039, 5038
4572, 5000, 5001, 5040, 5039
4573, 5001, 5002, 5041, 5040
4574, 5002, 5003, 5042, 5041
4575, 5003, 5004, 5043, 5042
4576, 5004, 5005, 5044, 5043
4577, 5005, 5006, 5045, 5044
4578, 5006, 5007, 5046, 5045
4579, 5007, 5008, 5047, 5046
4580, 5008, 5009, 5048, 5047
4581, 5009, 5010, 5049, 5048
4582, 5010, 5011, 5050, 5049
4583, 5011, 5012, 5051, 5050
4584, 5012, 5013, 5052, 5051
4585, 5013, 5014, 5053, 5052
4586, 5014, 5015, 5054, 5053
4587, 5015, 5016, 5055, 5054
4588, 5016, 5017, 5056, 5055
4589, 5017, 5018, 5057, 5056
4590, 5018, 5019, 5058, 5057
4591, 5019, 5020, 5059, 5058
4592, 5020, 5021, 5060, 5059
4593, 5021, 5022, 5061, 5060
4594, 5022, 5023, 5062, 5061
4595, 5023, 5024, 5063, 5062
4596, 5024, 5025, 5064, 5063
4597, 5025, 5026, 5065, 5064
4598, 5026, 5027, 5066, 5065
4599, 5027, 5028, 5067, 5066
4600, 5028,  161,  162, 5067
4601,  290, 5029, 5068,  289
4602, 5029, 5030, 5069, 5068
4603, 5030, 5031, 5070, 5069
4604, 5031, 5032, 5071, 5070
4605, 5032, 5033, 5072, 5071
4606, 5033, 5034, 5073, 5072
4607, 5034, 5035, 5074, 5073
4608, 5035, 5036, 5075, 5074
4609, 5036, 5037, 5076, 5075
4610, 5037, 5038, 5077, 5076
4611, 5038, 5039, 5078, 5077
4612, 5039, 5040, 5079, 5078
4613, 5040, 5041, 5080, 5079
4614, 5041, 5042, 5081, 5080
4615, 5042, 5043, 5082, 5081
4616, 5043, 5044, 5083, 5082
4617, 5044, 5045, 5084, 5083
4618, 5045, 5046, 5085, 5084
4619, 5046, 5047, 5086, 5085
4620, 5047, 5048, 5087, 5086
4621, 5048, 5049, 5088, 5087
4622, 5049, 5050, 5089, 5088
4623, 5050, 5051, 5090, 5089
4624, 5051, 5052, 5091, 5090
4625, 5052, 5053, 5092, 5091
4626, 5053, 5054, 5093, 5092
4627, 5054, 5055, 5094, 5093
4628, 5055, 5056, 5095, 5094
4629, 5056, 5057, 5096, 5095
4630, 5057, 5058, 5097, 5096
4631, 5058, 5059, 5098, 5097
4632, 5059, 5060, 5099, 5098
4633, 5060, 5061, 5100, 5099
4634, 5061, 5062, 5101, 5100
4635, 5062, 5063, 5102, 5101
4636, 5063, 5064, 5103, 5102
4637, 5064, 5065, 5104, 5103
4638, 5065, 5066, 5105, 5104
4639, 5066, 5067, 5106, 5105
4640, 5067,  162,  163, 5106
4641,  289, 5068, 5107,  288
4642, 5068, 5069, 5108, 5107
4643, 5069, 5070, 5109, 5108
4644, 5070, 5071, 5110, 5109
4645, 5071, 5072, 5111, 5110
4646, 5072, 5073, 5112, 5111
4647, 5073, 5074, 5113, 5112
4648, 5074, 5075, 5114, 5113
4649, 5075, 5076, 5115, 5114
4650, 5076, 5077, 5116, 5115
4651, 5077, 5078, 5117, 5116
4652, 5078, 5079, 5118, 5117
4653, 5079, 5080, 5119, 5118
4654, 5080, 5081, 5120, 5119
4655, 5081, 5082, 5121, 5120
4656, 5082, 5083, 5122, 5121
4657, 5083, 5084, 5123, 5122
4658, 5084, 5085, 5124, 5123
4659, 5085, 5086, 5125, 5124
4660, 5086, 5087, 5126, 5125
4661, 5087, 5088, 5127, 5126
4662, 5088, 5089, 5128, 5127
4663, 5089, 5090, 5129, 5128
4664, 5090, 5091, 5130, 5129
4665, 5091, 5092, 5131, 5130
4666, 5092, 5093, 5132, 5131
4667, 5093, 5094, 5133, 5132
4668, 5094, 5095, 5134, 5133
4669, 5095, 5096, 5135, 5134
4670, 5096, 5097, 5136, 5135
4671, 5097, 5098, 5137, 5136
4672, 5098, 5099, 5138, 5137
4673, 5099, 5100, 5139, 5138
4674, 5100, 5101, 5140, 5139
4675, 5101, 5102, 5141, 5140
4676, 5102, 5103, 5142, 5141
4677, 5103, 5104, 5143, 5142
4678, 5104, 5105, 5144, 5143
4679, 5105, 5106, 5145, 5144
4680, 5106,  163,  164, 5145
4681,  288, 5107, 5146,  287
4682, 5107, 5108, 5147, 5146
4683, 5108, 5109, 5148, 5147
4684, 5109, 5110, 5149, 5148
4685, 5110, 5111, 5150, 5149
4686, 5111, 5112, 5151, 5150
4687, 5112, 5113, 5152, 5151
4688, 5113, 5114, 5153, 5152
4689, 5114, 5115, 5154, 5153
4690, 5115, 5116, 5155, 5154
4691, 5116, 5117, 5156, 5155
4692, 5117, 5118, 5157, 5156
4693, 5118, 5119, 5158, 5157
4694, 5119, 5120, 5159, 5158
4695, 5120, 5121, 5160, 5159
4696, 5121, 5122, 5161, 5160
4697, 5122, 5123, 5162, 5161
4698, 5123, 5124, 5163, 5162
4699, 5124, 5125, 5164, 5163
4700, 5125, 5126, 5165, 5164
4701, 5126, 5127, 5166, 5165
4702, 5127, 5128, 5167, 5166
4703, 5128, 5129, 5168, 5167
4704, 5129, 5130, 5169, 5168
4705, 5130, 5131, 5170, 5169
4706, 5131, 5132, 5171, 5170
4707, 5132, 5133, 5172, 5171
4708, 5133, 5134, 5173, 5172
4709, 5134, 5135, 5174, 5173
4710, 5135, 5136, 5175, 5174
4711, 5136, 5137, 5176, 5175
4712, 5137, 5138, 5177, 5176
4713, 5138, 5139, 5178, 5177
4714, 5139, 5140, 5179, 5178
4715, 5140, 5141, 5180, 5179
4716, 5141, 5142, 5181, 5180
4717, 5142, 5143, 5182, 5181
4718, 5143, 5144, 5183, 5182
4719, 5144, 5145, 5184, 5183
4720, 5145,  164,  165, 5184
4721,  287, 5146, 5185,  286
4722, 5146, 5147, 5186, 5185
4723, 5147, 5148, 5187, 5186
4724, 5148, 5149, 5188, 5187
4725, 5149, 5150, 5189, 5188
4726, 5150, 5151, 5190, 5189
4727, 5151, 5152, 5191, 5190
4728, 5152, 5153, 5192, 5191
4729, 5153, 5154, 5193, 5192
4730, 5154, 5155, 5194, 5193
4731, 5155, 5156, 5195, 5194
4732, 5156, 5157, 5196, 5195
4733, 5157, 5158, 5197, 5196
4734, 5158, 5159, 5198, 5197
4735, 5159, 5160, 5199, 5198
4736, 5160, 5161, 5200, 5199
4737, 5161, 5162, 5201, 5200
4738, 5162, 5163, 5202, 5201
4739, 5163, 5164, 5203, 5202
4740, 5164, 5165, 5204, 5203
4741, 5165, 5166, 5205, 5204
4742, 5166, 5167, 5206, 5205
4743, 5167, 5168, 5207, 5206
4744, 5168, 5169, 5208, 5207
4745, 5169, 5170, 5209, 5208
4746, 5170, 5171, 5210, 5209
4747, 5171, 5172, 5211, 5210
4748, 5172, 5173, 5212, 5211
4749, 5173, 5174, 5213, 5212
4750, 5174, 5175, 5214, 5213
4751, 5175, 5176, 5215, 5214
4752, 5176, 5177, 5216, 5215
4753, 5177, 5178, 5217, 5216
4754, 5178, 5179, 5218, 5217
4755, 5179, 5180, 5219, 5218
4756, 5180, 5181, 5220, 5219
4757, 5181, 5182, 5221, 5220
4758, 5182, 5183, 5222, 5221
4759, 5183, 5184, 5223, 5222
4760, 5184,  165,  166, 5223
4761,  286, 5185, 5224,  285
4762, 5185, 5186, 5225, 5224
4763, 5186, 5187, 5226, 5225
4764, 5187, 5188, 5227, 5226
4765, 5188, 5189, 5228, 5227
4766, 5189, 5190, 5229, 5228
4767, 5190, 5191, 5230, 5229
4768, 5191, 5192, 5231, 5230
4769, 5192, 5193, 5232, 5231
4770, 5193, 5194, 5233, 5232
4771, 5194, 5195, 5234, 5233
4772, 5195, 5196, 5235, 5234
4773, 5196, 5197, 5236, 5235
4774, 5197, 5198, 5237, 5236
4775, 5198, 5199, 5238, 5237
4776, 5199, 5200, 5239, 5238
4777, 5200, 5201, 5240, 5239
4778, 5201, 5202, 5241, 5240
4779, 5202, 5203, 5242, 5241
4780, 5203, 5204, 5243, 5242
4781, 5204, 5205, 5244, 5243
4782, 5205, 5206, 5245, 5244
4783, 5206, 5207, 5246, 5245
4784, 5207, 5208, 5247, 5246
4785, 5208, 5209, 5248, 5247
4786, 5209, 5210, 5249, 5248
4787, 5210, 5211, 5250, 5249
4788, 5211, 5212, 5251, 5250
4789, 5212, 5213, 5252, 5251
4790, 5213, 5214, 5253, 5252
4791, 5214, 5215, 5254, 5253
4792, 5215, 5216, 5255, 5254
4793, 5216, 5217, 5256, 5255
4794, 5217, 5218, 5257, 5256
4795, 5218, 5219, 5258, 5257
4796, 5219, 5220, 5259, 5258
4797, 5220, 5221, 5260, 5259
4798, 5221, 5222, 5261, 5260
4799, 5222, 5223, 5262, 5261
4800, 5223,  166,  167, 5262
4801,  285, 5224, 5263,  284
4802, 5224, 5225, 5264, 5263
4803, 5225, 5226, 5265, 5264
4804, 5226, 5227, 5266, 5265
4805, 5227, 5228, 5267, 5266
4806, 5228, 5229, 5268, 5267
4807, 5229, 5230, 5269, 5268
4808, 5230, 5231, 5270, 5269
4809, 5231, 5232, 5271, 5270
4810, 5232, 5233, 5272, 5271
4811, 5233, 5234, 5273, 5272
4812, 5234, 5235, 5274, 5273
4813, 5235, 5236, 5275, 5274
4814, 5236, 5237, 5276, 5275
4815, 5237, 5238, 5277, 5276
4816, 5238, 5239, 5278, 5277
4817, 5239, 5240, 5279, 5278
4818, 5240, 5241, 5280, 5279
4819, 5241, 5242, 5281, 5280
4820, 5242, 5243, 5282, 5281
4821, 5243, 5244, 5283, 5282
4822, 5244, 5245, 5284, 5283
4823, 5245, 5246, 5285, 5284
4824, 5246, 5247, 5286, 5285
4825, 5247, 5248, 5287, 5286
4826, 5248, 5249, 5288, 5287
4827, 5249, 5250, 5289, 5288
4828, 5250, 5251, 5290, 5289
4829, 5251, 5252, 5291, 5290
4830, 5252, 5253, 5292, 5291
4831, 5253, 5254, 5293, 5292
4832, 5254, 5255, 5294, 5293
4833, 5255, 5256, 5295, 5294
4834, 5256, 5257, 5296, 5295
4835, 5257, 5258, 5297, 5296
4836, 5258, 5259, 5298, 5297
4837, 5259, 5260, 5299, 5298
4838, 5260, 5261, 5300, 5299
4839, 5261, 5262, 5301, 5300
4840, 5262,  167,  168, 5301
4841,  284, 5263, 5302,  283
4842, 5263, 5264, 5303, 5302
4843, 5264, 5265, 5304, 5303
4844, 5265, 5266, 5305, 5304
4845, 5266, 5267, 5306, 5305
4846, 5267, 5268, 5307, 5306
4847, 5268, 5269, 5308, 5307
4848, 5269, 5270, 5309, 5308
4849, 5270, 5271, 5310, 5309
4850, 5271, 5272, 5311, 5310
4851, 5272, 5273, 5312, 5311
4852, 5273, 5274, 5313, 5312
4853, 5274, 5275, 5314, 5313
4854, 5275, 5276, 5315, 5314
4855, 5276, 5277, 5316, 5315
4856, 5277, 5278, 5317, 5316
4857, 5278, 5279, 5318, 5317
4858, 5279, 5280, 5319, 5318
4859, 5280, 5281, 5320, 5319
4860, 5281, 5282, 5321, 5320
4861, 5282, 5283, 5322, 5321
4862, 5283, 5284, 5323, 5322
4863, 5284, 5285, 5324, 5323
4864, 5285, 5286, 5325, 5324
4865, 5286, 5287, 5326, 5325
4866, 5287, 5288, 5327, 5326
4867, 5288, 5289, 5328, 5327
4868, 5289, 5290, 5329, 5328
4869, 5290, 5291, 5330, 5329
4870, 5291, 5292, 5331, 5330
4871, 5292, 5293, 5332, 5331
4872, 5293, 5294, 5333, 5332
4873, 5294, 5295, 5334, 5333
4874, 5295, 5296, 5335, 5334
4875, 5296, 5297, 5336, 5335
4876, 5297, 5298, 5337, 5336
4877, 5298, 5299, 5338, 5337
4878, 5299, 5300, 5339, 5338
4879, 5300, 5301, 5340, 5339
4880, 5301,  168,  169, 5340
4881,  283, 5302, 5341,  282
4882, 5302, 5303, 5342, 5341
4883, 5303, 5304, 5343, 5342
4884, 5304, 5305, 5344, 5343
4885, 5305, 5306, 5345, 5344
4886, 5306, 5307, 5346, 5345
4887, 5307, 5308, 5347, 5346
4888, 5308, 5309, 5348, 5347
4889, 5309, 5310, 5349, 5348
4890, 5310, 5311, 5350, 5349
4891, 5311, 5312, 5351, 5350
4892, 5312, 5313, 5352, 5351
4893, 5313, 5314, 5353, 5352
4894, 5314, 5315, 5354, 5353
4895, 5315, 5316, 5355, 5354
4896, 5316, 5317, 5356, 5355
4897, 5317, 5318, 5357, 5356
4898, 5318, 5319, 5358, 5357
4899, 5319, 5320, 5359, 5358
4900, 5320, 5321, 5360, 5359
4901, 5321, 5322, 5361, 5360
4902, 5322, 5323, 5362, 5361
4903, 5323, 5324, 5363, 5362
4904, 5324, 5325, 5364, 5363
4905, 5325, 5326, 5365, 5364
4906, 5326, 5327, 5366, 5365
4907, 5327, 5328, 5367, 5366
4908, 5328, 5329, 5368, 5367
4909, 5329, 5330, 5369, 5368
4910, 5330, 5331, 5370, 5369
4911, 5331, 5332, 5371, 5370
4912, 5332, 5333, 5372, 5371
4913, 5333, 5334, 5373, 5372
4914, 5334, 5335, 5374, 5373
4915, 5335, 5336, 5375, 5374
4916, 5336, 5337, 5376, 5375
4917, 5337, 5338, 5377, 5376
4918, 5338, 5339, 5378, 5377
4919, 5339, 5340, 5379, 5378
4920, 5340,  169,  170, 5379
4921,  282, 5341, 5380,  281
4922, 5341, 5342, 5381, 5380
4923, 5342, 5343, 5382, 5381
4924, 5343, 5344, 5383, 5382
4925, 5344, 5345, 5384, 5383
4926, 5345, 5346, 5385, 5384
4927, 5346, 5347, 5386, 5385
4928, 5347, 5348, 5387, 5386
4929, 5348, 5349, 5388, 5387
4930, 5349, 5350, 5389, 5388
4931, 5350, 5351, 5390, 5389
4932, 5351, 5352, 5391, 5390
4933, 5352, 5353, 5392, 5391
4934, 5353, 5354, 5393, 5392
4935, 5354, 5355, 5394, 5393
4936, 5355, 5356, 5395, 5394
4937, 5356, 5357, 5396, 5395
4938, 5357, 5358, 5397, 5396
4939, 5358, 5359, 5398, 5397
4940, 5359, 5360, 5399, 5398
4941, 5360, 5361, 5400, 5399
4942, 5361, 5362, 5401, 5400
4943, 5362, 5363, 5402, 5401
4944, 5363, 5364, 5403, 5402
4945, 5364, 5365, 5404, 5403
4946, 5365, 5366, 5405, 5404
4947, 5366, 5367, 5406, 5405
4948, 5367, 5368, 5407, 5406
4949, 5368, 5369, 5408, 5407
4950, 5369, 5370, 5409, 5408
4951, 5370, 5371, 5410, 5409
4952, 5371, 5372, 5411, 5410
4953, 5372, 5373, 5412, 5411
4954, 5373, 5374, 5413, 5412
4955, 5374, 5375, 5414, 5413
4956, 5375, 5376, 5415, 5414
4957, 5376, 5377, 5416, 5415
4958, 5377, 5378, 5417, 5416
4959, 5378, 5379, 5418, 5417
4960, 5379,  170,  171, 5418
4961,  281, 5380, 5419,  280
4962, 5380, 5381, 5420, 5419
4963, 5381, 5382, 5421, 5420
4964, 5382, 5383, 5422, 5421
4965, 5383, 5384, 5423, 5422
4966, 5384, 5385, 5424, 5423
4967, 5385, 5386, 5425, 5424
4968, 5386, 5387, 5426, 5425
4969, 5387, 5388, 5427, 5426
4970, 5388, 5389, 5428, 5427
4971, 5389, 5390, 5429, 5428
4972, 5390, 5391, 5430, 5429
4973, 5391, 5392, 5431, 5430
4974, 5392, 5393, 5432, 5431
4975, 5393, 5394, 5433, 5432
4976, 5394, 5395, 5434, 5433
4977, 5395, 5396, 5435, 5434
4978, 5396, 5397, 5436, 5435
4979, 5397, 5398, 5437, 5436
4980, 5398, 5399, 5438, 5437
4981, 5399, 5400, 5439, 5438
4982, 5400, 5401, 5440, 5439
4983, 5401, 5402, 5441, 5440
4984, 5402, 5403, 5442, 5441
4985, 5403, 5404, 5443, 5442
4986, 5404, 5405, 5444, 5443
4987, 5405, 5406, 5445, 5444
4988, 5406, 5407, 5446, 5445
4989, 5407, 5408, 5447, 5446
4990, 5408, 5409, 5448, 5447
4991, 5409, 5410, 5449, 5448
4992, 5410, 5411, 5450, 5449
4993, 5411, 5412, 5451, 5450
4994, 5412, 5413, 5452, 5451
4995, 5413, 5414, 5453, 5452
4996, 5414, 5415, 5454, 5453
4997, 5415, 5416, 5455, 5454
4998, 5416, 5417, 5456, 5455
4999, 5417, 5418, 5457, 5456
5000, 5418,  171,  172, 5457
5001,  280, 5419, 5458,  279
5002, 5419, 5420, 5459, 5458
5003, 5420, 5421, 5460, 5459
5004, 5421, 5422, 5461, 5460
5005, 5422, 5423, 5462, 5461
5006, 5423, 5424, 5463, 5462
5007, 5424, 5425, 5464, 5463
5008, 5425, 5426, 5465, 5464
5009, 5426, 5427, 5466, 5465
5010, 5427, 5428, 5467, 5466
5011, 5428, 5429, 5468, 5467
5012, 5429, 5430, 5469, 5468
5013, 5430, 5431, 5470, 5469
5014, 5431, 5432, 5471, 5470
5015, 5432, 5433, 5472, 5471
5016, 5433, 5434, 5473, 5472
5017, 5434, 5435, 5474, 5473
5018, 5435, 5436, 5475, 5474
5019, 5436, 5437, 5476, 5475
5020, 5437, 5438, 5477, 5476
5021, 5438, 5439, 5478, 5477
5022, 5439, 5440, 5479, 5478
5023, 5440, 5441, 5480, 5479
5024, 5441, 5442, 5481, 5480
5025, 5442, 5443, 5482, 5481
5026, 5443, 5444, 5483, 5482
5027, 5444, 5445, 5484, 5483
5028, 5445, 5446, 5485, 5484
5029, 5446, 5447, 5486, 5485
5030, 5447, 5448, 5487, 5486
5031, 5448, 5449, 5488, 5487
5032, 5449, 5450, 5489, 5488
5033, 5450, 5451, 5490, 5489
5034, 5451, 5452, 5491, 5490
5035, 5452, 5453, 5492, 5491
5036, 5453, 5454, 5493, 5492
5037, 5454, 5455, 5494, 5493
5038, 5455, 5456, 5495, 5494
5039, 5456, 5457, 5496, 5495
5040, 5457,  172,  173, 5496
5041,  279, 5458, 5497,  278
5042, 5458, 5459, 5498, 5497
5043, 5459, 5460, 5499, 5498
5044, 5460, 5461, 5500, 5499
5045, 5461, 5462, 5501, 5500
5046, 5462, 5463, 5502, 5501
5047, 5463, 5464, 5503, 5502
5048, 5464, 5465, 5504, 5503
5049, 5465, 5466, 5505, 5504
5050, 5466, 5467, 5506, 5505
5051, 5467, 5468, 5507, 5506
5052, 5468, 5469, 5508, 5507
5053, 5469, 5470, 5509, 5508
5054, 5470, 5471, 5510, 5509
5055, 5471, 5472, 5511, 5510
5056, 5472, 5473, 5512, 5511
5057, 5473, 5474, 5513, 5512
5058, 5474, 5475, 5514, 5513
5059, 5475, 5476, 5515, 5514
5060, 5476, 5477, 5516, 5515
5061, 5477, 5478, 5517, 5516
5062, 5478, 5479, 5518, 5517
5063, 5479, 5480, 5519, 5518
5064, 5480, 5481, 5520, 5519
5065, 5481, 5482, 5521, 5520
5066, 5482, 5483, 5522, 5521
5067, 5483, 5484, 5523, 5522
5068, 5484, 5485, 5524, 5523
5069, 5485, 5486, 5525, 5524
5070, 5486, 5487, 5526, 5525
5071, 5487, 5488, 5527, 5526
5072, 5488, 5489, 5528, 5527
5073, 5489, 5490, 5529, 5528
5074, 5490, 5491, 5530, 5529
5075, 5491, 5492, 5531, 5530
5076, 5492, 5493, 5532, 5531
5077, 5493, 5494, 5533, 5532
5078, 5494, 5495, 5534, 5533
5079, 5495, 5496, 5535, 5534
5080, 5496,  173,  174, 5535
5081,  278, 5497, 5536,  277
5082, 5497, 5498, 5537, 5536
5083, 5498, 5499, 5538, 5537
5084, 5499, 5500, 5539, 5538
5085, 5500, 5501, 5540, 5539
5086, 5501, 5502, 5541, 5540
5087, 5502, 5503, 5542, 5541
5088, 5503, 5504, 5543, 5542
5089, 5504, 5505, 5544, 5543
5090, 5505, 5506, 5545, 5544
5091, 5506, 5507, 5546, 5545
5092, 5507, 5508, 5547, 5546
5093, 5508, 5509, 5548, 5547
5094, 5509, 5510, 5549, 5548
5095, 5510, 5511, 5550, 5549
5096, 5511, 5512, 5551, 5550
5097, 5512, 5513, 5552, 5551
5098, 5513, 5514, 5553, 5552
5099, 5514, 5515, 5554, 5553
5100, 5515, 5516, 5555, 5554
5101, 5516, 5517, 5556, 5555
5102, 5517, 5518, 5557, 5556
5103, 5518, 5519, 5558, 5557
5104, 5519, 5520, 5559, 5558
5105, 5520, 5521, 5560, 5559
5106, 5521, 5522, 5561, 5560
5107, 5522, 5523, 5562, 5561
5108, 5523, 5524, 5563, 5562
5109, 5524, 5525, 5564, 5563
5110, 5525, 5526, 5565, 5564
5111, 5526, 5527, 5566, 5565
5112, 5527, 5528, 5567, 5566
5113, 5528, 5529, 5568, 5567
5114, 5529, 5530, 5569, 5568
5115, 5530, 5531, 5570, 5569
5116, 5531, 5532, 5571, 5570
5117, 5532, 5533, 5572, 5571
5118, 5533, 5534, 5573, 5572
5119, 5534, 5535, 5574, 5573
5120, 5535,  174,  175, 5574
5121,  277, 5536, 5575,  276
5122, 5536, 5537, 5576, 5575
5123, 5537, 5538, 5577, 5576
5124, 5538, 5539, 5578, 5577
5125, 5539, 5540, 5579, 5578
5126, 5540, 5541, 5580, 5579
5127, 5541, 5542, 5581, 5580
5128, 5542, 5543, 5582, 5581
5129, 5543, 5544, 5583, 5582
5130, 5544, 5545, 5584, 5583
5131, 5545, 5546, 5585, 5584
5132, 5546, 5547, 5586, 5585
5133, 5547, 5548, 5587, 5586
5134, 5548, 5549, 5588, 5587
5135, 5549, 5550, 5589, 5588
5136, 5550, 5551, 5590, 5589
5137, 5551, 5552, 5591, 5590
5138, 5552, 5553, 5592, 5591
5139, 5553, 5554, 5593, 5592
5140, 5554, 5555, 5594, 5593
5141, 5555, 5556, 5595, 5594
5142, 5556, 5557, 5596, 5595
5143, 5557, 5558, 5597, 5596
5144, 5558, 5559, 5598, 5597
5145, 5559, 5560, 5599, 5598
5146, 5560, 5561, 5600, 5599
5147, 5561, 5562, 5601, 5600
5148, 5562, 5563, 5602, 5601
5149, 5563, 5564, 5603, 5602
5150, 5564, 5565, 5604, 5603
5151, 5565, 5566, 5605, 5604
5152, 5566, 5567, 5606, 5605
5153, 5567, 5568, 5607, 5606
5154, 5568, 5569, 5608, 5607
5155, 5569, 5570, 5609, 5608
5156, 5570, 5571, 5610, 5609
5157, 5571, 5572, 5611, 5610
5158, 5572, 5573, 5612, 5611
5159, 5573, 5574, 5613, 5612
5160, 5574,  175,  176, 5613
5161,  276, 5575, 5614,  275
5162, 5575, 5576, 5615, 5614
5163, 5576, 5577, 5616, 5615
5164, 5577, 5578, 5617, 5616
5165, 5578, 5579, 5618, 5617
5166, 5579, 5580, 5619, 5618
5167, 5580, 5581, 5620, 5619
5168, 5581, 5582, 5621, 5620
5169, 5582, 5583, 5622, 5621
5170, 5583, 5584, 5623, 5622
5171, 5584, 5585, 5624, 5623
5172, 5585, 5586, 5625, 5624
5173, 5586, 5587, 5626, 5625
5174, 5587, 5588, 5627, 5626
5175, 5588, 5589, 5628, 5627
5176, 5589, 5590, 5629, 5628
5177, 5590, 5591, 5630, 5629
5178, 5591, 5592, 5631, 5630
5179, 5592, 5593, 5632, 5631
5180, 5593, 5594, 5633, 5632
5181, 5594, 5595, 5634, 5633
5182, 5595, 5596, 5635, 5634
5183, 5596, 5597, 5636, 5635
5184, 5597, 5598, 5637, 5636
5185, 5598, 5599, 5638, 5637
5186, 5599, 5600, 5639, 5638
5187, 5600, 5601, 5640, 5639
5188, 5601, 5602, 5641, 5640
5189, 5602, 5603, 5642, 5641
5190, 5603, 5604, 5643, 5642
5191, 5604, 5605, 5644, 5643
5192, 5605, 5606, 5645, 5644
5193, 5606, 5607, 5646, 5645
5194, 5607, 5608, 5647, 5646
5195, 5608, 5609, 5648, 5647
5196, 5609, 5610, 5649, 5648
5197, 5610, 5611, 5650, 5649
5198, 5611, 5612, 5651, 5650
5199, 5612, 5613, 5652, 5651
5200, 5613,  176,  177, 5652
5201,  275, 5614, 5653,  274
5202, 5614, 5615, 5654, 5653
5203, 5615, 5616, 5655, 5654
5204, 5616, 5617, 5656, 5655
5205, 5617, 5618, 5657, 5656
5206, 5618, 5619, 5658, 5657
5207, 5619, 5620, 5659, 5658
5208, 5620, 5621, 5660, 5659
5209, 5621, 5622, 5661, 5660
5210, 5622, 5623, 5662, 5661
5211, 5623, 5624, 5663, 5662
5212, 5624, 5625, 5664, 5663
5213, 5625, 5626, 5665, 5664
5214, 5626, 5627, 5666, 5665
5215, 5627, 5628, 5667, 5666
5216, 5628, 5629, 5668, 5667
5217, 5629, 5630, 5669, 5668
5218, 5630, 5631, 5670, 5669
5219, 5631, 5632, 5671, 5670
5220, 5632, 5633, 5672, 5671
5221, 5633, 5634, 5673, 5672
5222, 5634, 5635, 5674, 5673
5223, 5635, 5636, 5675, 5674
5224, 5636, 5637, 5676, 5675
5225, 5637, 5638, 5677, 5676
5226, 5638, 5639, 5678, 5677
5227, 5639, 5640, 5679, 5678
5228, 5640, 5641, 5680, 5679
5229, 5641, 5642, 5681, 5680
5230, 5642, 5643, 5682, 5681
5231, 5643, 5644, 5683, 5682
5232, 5644, 5645, 5684, 5683
5233, 5645, 5646, 5685, 5684
5234, 5646, 5647, 5686, 5685
5235, 5647, 5648, 5687, 5686
5236, 5648, 5649, 5688, 5687
5237, 5649, 5650, 5689, 5688
5238, 5650, 5651, 5690, 5689
5239, 5651, 5652, 5691, 5690
5240, 5652,  177,  178, 5691
5241,  274, 5653, 5692,  273
5242, 5653, 5654, 5693, 5692
5243, 5654, 5655, 5694, 5693
5244, 5655, 5656, 5695, 5694
5245, 5656, 5657, 5696, 5695
5246, 5657, 5658, 5697, 5696
5247, 5658, 5659, 5698, 5697
5248, 5659, 5660, 5699, 5698
5249, 5660, 5661, 5700, 5699
5250, 5661, 5662, 5701, 5700
5251, 5662, 5663, 5702, 5701
5252, 5663, 5664, 5703, 5702
5253, 5664, 5665, 5704, 5703
5254, 5665, 5666, 5705, 5704
5255, 5666, 5667, 5706, 5705
5256, 5667, 5668, 5707, 5706
5257, 5668, 5669, 5708, 5707
5258, 5669, 5670, 5709, 5708
5259, 5670, 5671, 5710, 5709
5260, 5671, 5672, 5711, 5710
5261, 5672, 5673, 5712, 5711
5262, 5673, 5674, 5713, 5712
5263, 5674, 5675, 5714, 5713
5264, 5675, 5676, 5715, 5714
5265, 5676, 5677, 5716, 5715
5266, 5677, 5678, 5717, 5716
5267, 5678, 5679, 5718, 5717
5268, 5679, 5680, 5719, 5718
5269, 5680, 5681, 5720, 5719
5270, 5681, 5682, 5721, 5720
5271, 5682, 5683, 5722, 5721
5272, 5683, 5684, 5723, 5722
5273, 5684, 5685, 5724, 5723
5274, 5685, 5686, 5725, 5724
5275, 5686, 5687, 5726, 5725
5276, 5687, 5688, 5727, 5726
5277, 5688, 5689, 5728, 5727
5278, 5689, 5690, 5729, 5728
5279, 5690, 5691, 5730, 5729
5280, 5691,  178,  179, 5730
5281,  273, 5692, 5731,  272
5282, 5692, 5693, 5732, 5731
5283, 5693, 5694, 5733, 5732
5284, 5694, 5695, 5734, 5733
5285, 5695, 5696, 5735, 5734
5286, 5696, 5697, 5736, 5735
5287, 5697, 5698, 5737, 5736
5288, 5698, 5699, 5738, 5737
5289, 5699, 5700, 5739, 5738
5290, 5700, 5701, 5740, 5739
5291, 5701, 5702, 5741, 5740
5292, 5702, 5703, 5742, 5741
5293, 5703, 5704, 5743, 5742
5294, 5704, 5705, 5744, 5743
5295, 5705, 5706, 5745, 5744
5296, 5706, 5707, 5746, 5745
5297, 5707, 5708, 5747, 5746
5298, 5708, 5709, 5748, 5747
5299, 5709, 5710, 5749, 5748
5300, 5710, 5711, 5750, 5749
5301, 5711, 5712, 5751, 5750
5302, 5712, 5713, 5752, 5751
5303, 5713, 5714, 5753, 5752
5304, 5714, 5715, 5754, 5753
5305, 5715, 5716, 5755, 5754
5306, 5716, 5717, 5756, 5755
5307, 5717, 5718, 5757, 5756
5308, 5718, 5719, 5758, 5757
5309, 5719, 5720, 5759, 5758
5310, 5720, 5721, 5760, 5759
5311, 5721, 5722, 5761, 5760
5312, 5722, 5723, 5762, 5761
5313, 5723, 5724, 5763, 5762
5314, 5724, 5725, 5764, 5763
5315, 5725, 5726, 5765, 5764
5316, 5726, 5727, 5766, 5765
5317, 5727, 5728, 5767, 5766
5318, 5728, 5729, 5768, 5767
5319, 5729, 5730, 5769, 5768
5320, 5730,  179,  180, 5769
5321,  272, 5731, 5770,  271
5322, 5731, 5732, 5771, 5770
5323, 5732, 5733, 5772, 5771
5324, 5733, 5734, 5773, 5772
5325, 5734, 5735, 5774, 5773
5326, 5735, 5736, 5775, 5774
5327, 5736, 5737, 5776, 5775
5328, 5737, 5738, 5777, 5776
5329, 5738, 5739, 5778, 5777
5330, 5739, 5740, 5779, 5778
5331, 5740, 5741, 5780, 5779
5332, 5741, 5742, 5781, 5780
5333, 5742, 5743, 5782, 5781
5334, 5743, 5744, 5783, 5782
5335, 5744, 5745, 5784, 5783
5336, 5745, 5746, 5785, 5784
5337, 5746, 5747, 5786, 5785
5338, 5747, 5748, 5787, 5786
5339, 5748, 5749, 5788, 5787
5340, 5749, 5750, 5789, 5788
5341, 5750, 5751, 5790, 5789
5342, 5751, 5752, 5791, 5790
5343, 5752, 5753, 5792, 5791
5344, 5753, 5754, 5793, 5792
5345, 5754, 5755, 5794, 5793
5346, 5755, 5756, 5795, 5794
5347, 5756, 5757, 5796, 5795
5348, 5757, 5758, 5797, 5796
5349, 5758, 5759, 5798, 5797
5350, 5759, 5760, 5799, 5798
5351, 5760, 5761, 5800, 5799
5352, 5761, 5762, 5801, 5800
5353, 5762, 5763, 5802, 5801
5354, 5763, 5764, 5803, 5802
5355, 5764, 5765, 5804, 5803
5356, 5765, 5766, 5805, 5804
5357, 5766, 5767, 5806, 5805
5358, 5767, 5768, 5807, 5806
5359, 5768, 5769, 5808, 5807
5360, 5769,  180,  181, 5808
5361,  271, 5770, 5809,  270
5362, 5770, 5771, 5810, 5809
5363, 5771, 5772, 5811, 5810
5364, 5772, 5773, 5812, 5811
5365, 5773, 5774, 5813, 5812
5366, 5774, 5775, 5814, 5813
5367, 5775, 5776, 5815, 5814
5368, 5776, 5777, 5816, 5815
5369, 5777, 5778, 5817, 5816
5370, 5778, 5779, 5818, 5817
5371, 5779, 5780, 5819, 5818
5372, 5780, 5781, 5820, 5819
5373, 5781, 5782, 5821, 5820
5374, 5782, 5783, 5822, 5821
5375, 5783, 5784, 5823, 5822
5376, 5784, 5785, 5824, 5823
5377, 5785, 5786, 5825, 5824
5378, 5786, 5787, 5826, 5825
5379, 5787, 5788, 5827, 5826
5380, 5788, 5789, 5828, 5827
5381, 5789, 5790, 5829, 5828
5382, 5790, 5791, 5830, 5829
5383, 5791, 5792, 5831, 5830
5384, 5792, 5793, 5832, 5831
5385, 5793, 5794, 5833, 5832
5386, 5794, 5795, 5834, 5833
5387, 5795, 5796, 5835, 5834
5388, 5796, 5797, 5836, 5835
5389, 5797, 5798, 5837, 5836
5390, 5798, 5799, 5838, 5837
5391, 5799, 5800, 5839, 5838
5392, 5800, 5801, 5840, 5839
5393, 5801, 5802, 5841, 5840
5394, 5802, 5803, 5842, 5841
5395, 5803, 5804, 5843, 5842
5396, 5804, 5805, 5844, 5843
5397, 5805, 5806, 5845, 5844
5398, 5806, 5807, 5846, 5845
5399, 5807, 5808, 5847, 5846
5400, 5808,  181,  182, 5847
5401,  270, 5809, 5848,  269
5402, 5809, 5810, 5849, 5848
5403, 5810, 5811, 5850, 5849
5404, 5811, 5812, 5851, 5850
5405, 5812, 5813, 5852, 5851
5406, 5813, 5814, 5853, 5852
5407, 5814, 5815, 5854, 5853
5408, 5815, 5816, 5855, 5854
5409, 5816, 5817, 5856, 5855
5410, 5817, 5818, 5857, 5856
5411, 5818, 5819, 5858, 5857
5412, 5819, 5820, 5859, 5858
5413, 5820, 5821, 5860, 5859
5414, 5821, 5822, 5861, 5860
5415, 5822, 5823, 5862, 5861
5416, 5823, 5824, 5863, 5862
5417, 5824, 5825, 5864, 5863
5418, 5825, 5826, 5865, 5864
5419, 5826, 5827, 5866, 5865
5420, 5827, 5828, 5867, 5866
5421, 5828, 5829, 5868, 5867
5422, 5829, 5830, 5869, 5868
5423, 5830, 5831, 5870, 5869
5424, 5831, 5832, 5871, 5870
5425, 5832, 5833, 5872, 5871
5426, 5833, 5834, 5873, 5872
5427, 5834, 5835, 5874, 5873
5428, 5835, 5836, 5875, 5874
5429, 5836, 5837, 5876, 5875
5430, 5837, 5838, 5877, 5876
5431, 5838, 5839, 5878, 5877
5432, 5839, 5840, 5879, 5878
5433, 5840, 5841, 5880, 5879
5434, 5841, 5842, 5881, 5880
5435, 5842, 5843, 5882, 5881
5436, 5843, 5844, 5883, 5882
5437, 5844, 5845, 5884, 5883
5438, 5845, 5846, 5885, 5884
5439, 5846, 5847, 5886, 5885
5440, 5847,  182,  183, 5886
5441,  269, 5848, 5887,  268
5442, 5848, 5849, 5888, 5887
5443, 5849, 5850, 5889, 5888
5444, 5850, 5851, 5890, 5889
5445, 5851, 5852, 5891, 5890
5446, 5852, 5853, 5892, 5891
5447, 5853, 5854, 5893, 5892
5448, 5854, 5855, 5894, 5893
5449, 5855, 5856, 5895, 5894
5450, 5856, 5857, 5896, 5895
5451, 5857, 5858, 5897, 5896
5452, 5858, 5859, 5898, 5897
5453, 5859, 5860, 5899, 5898
5454, 5860, 5861, 5900, 5899
5455, 5861, 5862, 5901, 5900
5456, 5862, 5863, 5902, 5901
5457, 5863, 5864, 5903, 5902
5458, 5864, 5865, 5904, 5903
5459, 5865, 5866, 5905, 5904
5460, 5866, 5867, 5906, 5905
5461, 5867, 5868, 5907, 5906
5462, 5868, 5869, 5908, 5907
5463, 5869, 5870, 5909, 5908
5464, 5870, 5871, 5910, 5909
5465, 5871, 5872, 5911, 5910
5466, 5872, 5873, 5912, 5911
5467, 5873, 5874, 5913, 5912
5468, 5874, 5875, 5914, 5913
5469, 5875, 5876, 5915, 5914
5470, 5876, 5877, 5916, 5915
5471, 5877, 5878, 5917, 5916
5472, 5878, 5879, 5918, 5917
5473, 5879, 5880, 5919, 5918
5474, 5880, 5881, 5920, 5919
5475, 5881, 5882, 5921, 5920
5476, 5882, 5883, 5922, 5921
5477, 5883, 5884, 5923, 5922
5478, 5884, 5885, 5924, 5923
5479, 5885, 5886, 5925, 5924
5480, 5886,  183,  184, 5925
5481,  268, 5887, 5926,  267
5482, 5887, 5888, 5927, 5926
5483, 5888, 5889, 5928, 5927
5484, 5889, 5890, 5929, 5928
5485, 5890, 5891, 5930, 5929
5486, 5891, 5892, 5931, 5930
5487, 5892, 5893, 5932, 5931
5488, 5893, 5894, 5933, 5932
5489, 5894, 5895, 5934, 5933
5490, 5895, 5896, 5935, 5934
5491, 5896, 5897, 5936, 5935
5492, 5897, 5898, 5937, 5936
5493, 5898, 5899, 5938, 5937
5494, 5899, 5900, 5939, 5938
5495, 5900, 5901, 5940, 5939
5496, 5901, 5902, 5941, 5940
5497, 5902, 5903, 5942, 5941
5498, 5903, 5904, 5943, 5942
5499, 5904, 5905, 5944, 5943
5500, 5905, 5906, 5945, 5944
5501, 5906, 5907, 5946, 5945
5502, 5907, 5908, 5947, 5946
5503, 5908, 5909, 5948, 5947
5504, 5909, 5910, 5949, 5948
5505, 5910, 5911, 5950, 5949
5506, 5911, 5912, 5951, 5950
5507, 5912, 5913, 5952, 5951
5508, 5913, 5914, 5953, 5952
5509, 5914, 5915, 5954, 5953
5510, 5915, 5916, 5955, 5954
5511, 5916, 5917, 5956, 5955
5512, 5917, 5918, 5957, 5956
5513, 5918, 5919, 5958, 5957
5514, 5919, 5920, 5959, 5958
5515, 5920, 5921, 5960, 5959
5516, 5921, 5922, 5961, 5960
5517, 5922, 5923, 5962, 5961
5518, 5923, 5924, 5963, 5962
5519, 5924, 5925, 5964, 5963
5520, 5925,  184,  185, 5964
5521,  267, 5926, 5965,  266
5522, 5926, 5927, 5966, 5965
5523, 5927, 5928, 5967, 5966
5524, 5928, 5929, 5968, 5967
5525, 5929, 5930, 5969, 5968
5526, 5930, 5931, 5970, 5969
5527, 5931, 5932, 5971, 5970
5528, 5932, 5933, 5972, 5971
5529, 5933, 5934, 5973, 5972
5530, 5934, 5935, 5974, 5973
5531, 5935, 5936, 5975, 5974
5532, 5936, 5937, 5976, 5975
5533, 5937, 5938, 5977, 5976
5534, 5938, 5939, 5978, 5977
5535, 5939, 5940, 5979, 5978
5536, 5940, 5941, 5980, 5979
5537, 5941, 5942, 5981, 5980
5538, 5942, 5943, 5982, 5981
5539, 5943, 5944, 5983, 5982
5540, 5944, 5945, 5984, 5983
5541, 5945, 5946, 5985, 5984
5542, 5946, 5947, 5986, 5985
5543, 5947, 5948, 5987, 5986
5544, 5948, 5949, 5988, 5987
5545, 5949, 5950, 5989, 5988
5546, 5950, 5951, 5990, 5989
5547, 5951, 5952, 5991, 5990
5548, 5952, 5953, 5992, 5991
5549, 5953, 5954, 5993, 5992
5550, 5954, 5955, 5994, 5993
5551, 5955, 5956, 5995, 5994
5552, 5956, 5957, 5996, 5995
5553, 5957, 5958, 5997, 5996
5554, 5958, 5959, 5998, 5997
5555, 5959, 5960, 5999, 5998
5556, 5960, 5961, 6000, 5999
5557, 5961, 5962, 6001, 6000
5558, 5962, 5963, 6002, 6001
5559, 5963, 5964, 6003, 6002
5560, 5964,  185,  186, 6003
5561,  266, 5965, 6004,  265
5562, 5965, 5966, 6005, 6004
5563, 5966, 5967, 6006, 6005
5564, 5967, 5968, 6007, 6006
5565, 5968, 5969, 6008, 6007
5566, 5969, 5970, 6009, 6008
5567, 5970, 5971, 6010, 6009
5568, 5971, 5972, 6011, 6010
5569, 5972, 5973, 6012, 6011
5570, 5973, 5974, 6013, 6012
5571, 5974, 5975, 6014, 6013
5572, 5975, 5976, 6015, 6014
5573, 5976, 5977, 6016, 6015
5574, 5977, 5978, 6017, 6016
5575, 5978, 5979, 6018, 6017
5576, 5979, 5980, 6019, 6018
5577, 5980, 5981, 6020, 6019
5578, 5981, 5982, 6021, 6020
5579, 5982, 5983, 6022, 6021
5580, 5983, 5984, 6023, 6022
5581, 5984, 5985, 6024, 6023
5582, 5985, 5986, 6025, 6024
5583, 5986, 5987, 6026, 6025
5584, 5987, 5988, 6027, 6026
5585, 5988, 5989, 6028, 6027
5586, 5989, 5990, 6029, 6028
5587, 5990, 5991, 6030, 6029
5588, 5991, 5992, 6031, 6030
5589, 5992, 5993, 6032, 6031
5590, 5993, 5994, 6033, 6032
5591, 5994, 5995, 6034, 6033
5592, 5995, 5996, 6035, 6034
5593, 5996, 5997, 6036, 6035
5594, 5997, 5998, 6037, 6036
5595, 5998, 5999, 6038, 6037
5596, 5999, 6000, 6039, 6038
5597, 6000, 6001, 6040, 6039
5598, 6001, 6002, 6041, 6040
5599, 6002, 6003, 6042, 6041
5600, 6003,  186,  187, 6042
5601,  265, 6004, 6043,  264
5602, 6004, 6005, 6044, 6043
5603, 6005, 6006, 6045, 6044
5604, 6006, 6007, 6046, 6045
5605, 6007, 6008, 6047, 6046
5606, 6008, 6009, 6048, 6047
5607, 6009, 6010, 6049, 6048
5608, 6010, 6011, 6050, 6049
5609, 6011, 6012, 6051, 6050
5610, 6012, 6013, 6052, 6051
5611, 6013, 6014, 6053, 6052
5612, 6014, 6015, 6054, 6053
5613, 6015, 6016, 6055, 6054
5614, 6016, 6017, 6056, 6055
5615, 6017, 6018, 6057, 6056
5616, 6018, 6019, 6058, 6057
5617, 6019, 6020, 6059, 6058
5618, 6020, 6021, 6060, 6059
5619, 6021, 6022, 6061, 6060
5620, 6022, 6023, 6062, 6061
5621, 6023, 6024, 6063, 6062
5622, 6024, 6025, 6064, 6063
5623, 6025, 6026, 6065, 6064
5624, 6026, 6027, 6066, 6065
5625, 6027, 6028, 6067, 6066
5626, 6028, 6029, 6068, 6067
5627, 6029, 6030, 6069, 6068
5628, 6030, 6031, 6070, 6069
5629, 6031, 6032, 6071, 6070
5630, 6032, 6033, 6072, 6071
5631, 6033, 6034, 6073, 6072
5632, 6034, 6035, 6074, 6073
5633, 6035, 6036, 6075, 6074
5634, 6036, 6037, 6076, 6075
5635, 6037, 6038, 6077, 6076
5636, 6038, 6039, 6078, 6077
5637, 6039, 6040, 6079, 6078
5638, 6040, 6041, 6080, 6079
5639, 6041, 6042, 6081, 6080
5640, 6042,  187,  188, 6081
5641,  264, 6043, 6082,  263
5642, 6043, 6044, 6083, 6082
5643, 6044, 6045, 6084, 6083
5644, 6045, 6046, 6085, 6084
5645, 6046, 6047, 6086, 6085
5646, 6047, 6048, 6087, 6086
5647, 6048, 6049, 6088, 6087
5648, 6049, 6050, 6089, 6088
5649, 6050, 6051, 6090, 6089
5650, 6051, 6052, 6091, 6090
5651, 6052, 6053, 6092, 6091
5652, 6053, 6054, 6093, 6092
5653, 6054, 6055, 6094, 6093
5654, 6055, 6056, 6095, 6094
5655, 6056, 6057, 6096, 6095
5656, 6057, 6058, 6097, 6096
5657, 6058, 6059, 6098, 6097
5658, 6059, 6060, 6099, 6098
5659, 6060, 6061, 6100, 6099
5660, 6061, 6062, 6101, 6100
5661, 6062, 6063, 6102, 6101
5662, 6063, 6064, 6103, 6102
5663, 6064, 6065, 6104, 6103
5664, 6065, 6066, 6105, 6104
5665, 6066, 6067, 6106, 6105
5666, 6067, 6068, 6107, 6106
5667, 6068, 6069, 6108, 6107
5668, 6069, 6070, 6109, 6108
5669, 6070, 6071, 6110, 6109
5670, 6071, 6072, 6111, 6110
5671, 6072, 6073, 6112, 6111
5672, 6073, 6074, 6113, 6112
5673, 6074, 6075, 6114, 6113
5674, 6075, 6076, 6115, 6114
5675, 6076, 6077, 6116, 6115
5676, 6077, 6078, 6117, 6116
5677, 6078, 6079, 6118, 6117
5678, 6079, 6080, 6119, 6118
5679, 6080, 6081, 6120, 6119
5680, 6081,  188,  189, 6120
5681,  263, 6082, 6121,  262
5682, 6082, 6083, 6122, 6121
5683, 6083, 6084, 6123, 6122
5684, 6084, 6085, 6124, 6123
5685, 6085, 6086, 6125, 6124
5686, 6086, 6087, 6126, 6125
5687, 6087, 6088, 6127, 6126
5688, 6088, 6089, 6128, 6127
5689, 6089, 6090, 6129, 6128
5690, 6090, 6091, 6130, 6129
5691, 6091, 6092, 6131, 6130
5692, 6092, 6093, 6132, 6131
5693, 6093, 6094, 6133, 6132
5694, 6094, 6095, 6134, 6133
5695, 6095, 6096, 6135, 6134
5696, 6096, 6097, 6136, 6135
5697, 6097, 6098, 6137, 6136
5698, 6098, 6099, 6138, 6137
5699, 6099, 6100, 6139, 6138
5700, 6100, 6101, 6140, 6139
5701, 6101, 6102, 6141, 6140
5702, 6102, 6103, 6142, 6141
5703, 6103, 6104, 6143, 6142
5704, 6104, 6105, 6144, 6143
5705, 6105, 6106, 6145, 6144
5706, 6106, 6107, 6146, 6145
5707, 6107, 6108, 6147, 6146
5708, 6108, 6109, 6148, 6147
5709, 6109, 6110, 6149, 6148
5710, 6110, 6111, 6150, 6149
5711, 6111, 6112, 6151, 6150
5712, 6112, 6113, 6152, 6151
5713, 6113, 6114, 6153, 6152
5714, 6114, 6115, 6154, 6153
5715, 6115, 6116, 6155, 6154
5716, 6116, 6117, 6156, 6155
5717, 6117, 6118, 6157, 6156
5718, 6118, 6119, 6158, 6157
5719, 6119, 6120, 6159, 6158
5720, 6120,  189,  190, 6159
5721,  262, 6121, 6160,  261
5722, 6121, 6122, 6161, 6160
5723, 6122, 6123, 6162, 6161
5724, 6123, 6124, 6163, 6162
5725, 6124, 6125, 6164, 6163
5726, 6125, 6126, 6165, 6164
5727, 6126, 6127, 6166, 6165
5728, 6127, 6128, 6167, 6166
5729, 6128, 6129, 6168, 6167
5730, 6129, 6130, 6169, 6168
5731, 6130, 6131, 6170, 6169
5732, 6131, 6132, 6171, 6170
5733, 6132, 6133, 6172, 6171
5734, 6133, 6134, 6173, 6172
5735, 6134, 6135, 6174, 6173
5736, 6135, 6136, 6175, 6174
5737, 6136, 6137, 6176, 6175
5738, 6137, 6138, 6177, 6176
5739, 6138, 6139, 6178, 6177
5740, 6139, 6140, 6179, 6178
5741, 6140, 6141, 6180, 6179
5742, 6141, 6142, 6181, 6180
5743, 6142, 6143, 6182, 6181
5744, 6143, 6144, 6183, 6182
5745, 6144, 6145, 6184, 6183
5746, 6145, 6146, 6185, 6184
5747, 6146, 6147, 6186, 6185
5748, 6147, 6148, 6187, 6186
5749, 6148, 6149, 6188, 6187
5750, 6149, 6150, 6189, 6188
5751, 6150, 6151, 6190, 6189
5752, 6151, 6152, 6191, 6190
5753, 6152, 6153, 6192, 6191
5754, 6153, 6154, 6193, 6192
5755, 6154, 6155, 6194, 6193
5756, 6155, 6156, 6195, 6194
5757, 6156, 6157, 6196, 6195
5758, 6157, 6158, 6197, 6196
5759, 6158, 6159, 6198, 6197
5760, 6159,  190,  191, 6198
5761,  261, 6160, 6199,  260
5762, 6160, 6161, 6200, 6199
5763, 6161, 6162, 6201, 6200
5764, 6162, 6163, 6202, 6201
5765, 6163, 6164, 6203, 6202
5766, 6164, 6165, 6204, 6203
5767, 6165, 6166, 6205, 6204
5768, 6166, 6167, 6206, 6205
5769, 6167, 6168, 6207, 6206
5770, 6168, 6169, 6208, 6207
5771, 6169, 6170, 6209, 6208
5772, 6170, 6171, 6210, 6209
5773, 6171, 6172, 6211, 6210
5774, 6172, 6173, 6212, 6211
5775, 6173, 6174, 6213, 6212
5776, 6174, 6175, 6214, 6213
5777, 6175, 6176, 6215, 6214
5778, 6176, 6177, 6216, 6215
5779, 6177, 6178, 6217, 6216
5780, 6178, 6179, 6218, 6217
5781, 6179, 6180, 6219, 6218
5782, 6180, 6181, 6220, 6219
5783, 6181, 6182, 6221, 6220
5784, 6182, 6183, 6222, 6221
5785, 6183, 6184, 6223, 6222
5786, 6184, 6185, 6224, 6223
5787, 6185, 6186, 6225, 6224
5788, 6186, 6187, 6226, 6225
5789, 6187, 6188, 6227, 6226
5790, 6188, 6189, 6228, 6227
5791, 6189, 6190, 6229, 6228
5792, 6190, 6191, 6230, 6229
5793, 6191, 6192, 6231, 6230
5794, 6192, 6193, 6232, 6231
5795, 6193, 6194, 6233, 6232
5796, 6194, 6195, 6234, 6233
5797, 6195, 6196, 6235, 6234
5798, 6196, 6197, 6236, 6235
5799, 6197, 6198, 6237, 6236
5800, 6198,  191,  192, 6237
5801,  260, 6199, 6238,  259
5802, 6199, 6200, 6239, 6238
5803, 6200, 6201, 6240, 6239
5804, 6201, 6202, 6241, 6240
5805, 6202, 6203, 6242, 6241
5806, 6203, 6204, 6243, 6242
5807, 6204, 6205, 6244, 6243
5808, 6205, 6206, 6245, 6244
5809, 6206, 6207, 6246, 6245
5810, 6207, 6208, 6247, 6246
5811, 6208, 6209, 6248, 6247
5812, 6209, 6210, 6249, 6248
5813, 6210, 6211, 6250, 6249
5814, 6211, 6212, 6251, 6250
5815, 6212, 6213, 6252, 6251
5816, 6213, 6214, 6253, 6252
5817, 6214, 6215, 6254, 6253
5818, 6215, 6216, 6255, 6254
5819, 6216, 6217, 6256, 6255
5820, 6217, 6218, 6257, 6256
5821, 6218, 6219, 6258, 6257
5822, 6219, 6220, 6259, 6258
5823, 6220, 6221, 6260, 6259
5824, 6221, 6222, 6261, 6260
5825, 6222, 6223, 6262, 6261
5826, 6223, 6224, 6263, 6262
5827, 6224, 6225, 6264, 6263
5828, 6225, 6226, 6265, 6264
5829, 6226, 6227, 6266, 6265
5830, 6227, 6228, 6267, 6266
5831, 6228, 6229, 6268, 6267
5832, 6229, 6230, 6269, 6268
5833, 6230, 6231, 6270, 6269
5834, 6231, 6232, 6271, 6270
5835, 6232, 6233, 6272, 6271
5836, 6233, 6234, 6273, 6272
5837, 6234, 6235, 6274, 6273
5838, 6235, 6236, 6275, 6274
5839, 6236, 6237, 6276, 6275
5840, 6237,  192,  193, 6276
5841,  259, 6238, 6277,  258
5842, 6238, 6239, 6278, 6277
5843, 6239, 6240, 6279, 6278
5844, 6240, 6241, 6280, 6279
5845, 6241, 6242, 6281, 6280
5846, 6242, 6243, 6282, 6281
5847, 6243, 6244, 6283, 6282
5848, 6244, 6245, 6284, 6283
5849, 6245, 6246, 6285, 6284
5850, 6246, 6247, 6286, 6285
5851, 6247, 6248, 6287, 6286
5852, 6248, 6249, 6288, 6287
5853, 6249, 6250, 6289, 6288
5854, 6250, 6251, 6290, 6289
5855, 6251, 6252, 6291, 6290
5856, 6252, 6253, 6292, 6291
5857, 6253, 6254, 6293, 6292
5858, 6254, 6255, 6294, 6293
5859, 6255, 6256, 6295, 6294
5860, 6256, 6257, 6296, 6295
5861, 6257, 6258, 6297, 6296
5862, 6258, 6259, 6298, 6297
5863, 6259, 6260, 6299, 6298
5864, 6260, 6261, 6300, 6299
5865, 6261, 6262, 6301, 6300
5866, 6262, 6263, 6302, 6301
5867, 6263, 6264, 6303, 6302
5868, 6264, 6265, 6304, 6303
5869, 6265, 6266, 6305, 6304
5870, 6266, 6267, 6306, 6305
5871, 6267, 6268, 6307, 6306
5872, 6268, 6269, 6308, 6307
5873, 6269, 6270, 6309, 6308
5874, 6270, 6271, 6310, 6309
5875, 6271, 6272, 6311, 6310
5876, 6272, 6273, 6312, 6311
5877, 6273, 6274, 6313, 6312
5878, 6274, 6275, 6314, 6313
5879, 6275, 6276, 6315, 6314
5880, 6276,  193,  194, 6315
5881,  258, 6277, 6316,  257
5882, 6277, 6278, 6317, 6316
5883, 6278, 6279, 6318, 6317
5884, 6279, 6280, 6319, 6318
5885, 6280, 6281, 6320, 6319
5886, 6281, 6282, 6321, 6320
5887, 6282, 6283, 6322, 6321
5888, 6283, 6284, 6323, 6322
5889, 6284, 6285, 6324, 6323
5890, 6285, 6286, 6325, 6324
5891, 6286, 6287, 6326, 6325
5892, 6287, 6288, 6327, 6326
5893, 6288, 6289, 6328, 6327
5894, 6289, 6290, 6329, 6328
5895, 6290, 6291, 6330, 6329
5896, 6291, 6292, 6331, 6330
5897, 6292, 6293, 6332, 6331
5898, 6293, 6294, 6333, 6332
5899, 6294, 6295, 6334, 6333
5900, 6295, 6296, 6335, 6334
5901, 6296, 6297, 6336, 6335
5902, 6297, 6298, 6337, 6336
5903, 6298, 6299, 6338, 6337
5904, 6299, 6300, 6339, 6338
5905, 6300, 6301, 6340, 6339
5906, 6301, 6302, 6341, 6340
5907, 6302, 6303, 6342, 6341
5908, 6303, 6304, 6343, 6342
5909, 6304, 6305, 6344, 6343
5910, 6305, 6306, 6345, 6344
5911, 6306, 6307, 6346, 6345
5912, 6307, 6308, 6347, 6346
5913, 6308, 6309, 6348, 6347
5914, 6309, 6310, 6349, 6348
5915, 6310, 6311, 6350, 6349
5916, 6311, 6312, 6351, 6350
5917, 6312, 6313, 6352, 6351
5918, 6313, 6314, 6353, 6352
5919, 6314, 6315, 6354, 6353
5920, 6315,  194,  195, 6354
5921,  257, 6316, 6355,  256
5922, 6316, 6317, 6356, 6355
5923, 6317, 6318, 6357, 6356
5924, 6318, 6319, 6358, 6357
5925, 6319, 6320, 6359, 6358
5926, 6320, 6321, 6360, 6359
5927, 6321, 6322, 6361, 6360
5928, 6322, 6323, 6362, 6361
5929, 6323, 6324, 6363, 6362
5930, 6324, 6325, 6364, 6363
5931, 6325, 6326, 6365, 6364
5932, 6326, 6327, 6366, 6365
5933, 6327, 6328, 6367, 6366
5934, 6328, 6329, 6368, 6367
5935, 6329, 6330, 6369, 6368
5936, 6330, 6331, 6370, 6369
5937, 6331, 6332, 6371, 6370
5938, 6332, 6333, 6372, 6371
5939, 6333, 6334, 6373, 6372
5940, 6334, 6335, 6374, 6373
5941, 6335, 6336, 6375, 6374
5942, 6336, 6337, 6376, 6375
5943, 6337, 6338, 6377, 6376
5944, 6338, 6339, 6378, 6377
5945, 6339, 6340, 6379, 6378
5946, 6340, 6341, 6380, 6379
5947, 6341, 6342, 6381, 6380
5948, 6342, 6343, 6382, 6381
5949, 6343, 6344, 6383, 6382
5950, 6344, 6345, 6384, 6383
5951, 6345, 6346, 6385, 6384
5952, 6346, 6347, 6386, 6385
5953, 6347, 6348, 6387, 6386
5954, 6348, 6349, 6388, 6387
5955, 6349, 6350, 6389, 6388
5956, 6350, 6351, 6390, 6389
5957, 6351, 6352, 6391, 6390
5958, 6352, 6353, 6392, 6391
5959, 6353, 6354, 6393, 6392
5960, 6354,  195,  196, 6393
5961,  256, 6355, 6394,  255
5962, 6355, 6356, 6395, 6394
5963, 6356, 6357, 6396, 6395
5964, 6357, 6358, 6397, 6396
5965, 6358, 6359, 6398, 6397
5966, 6359, 6360, 6399, 6398
5967, 6360, 6361, 6400, 6399
5968, 6361, 6362, 6401, 6400
5969, 6362, 6363, 6402, 6401
5970, 6363, 6364, 6403, 6402
5971, 6364, 6365, 6404, 6403
5972, 6365, 6366, 6405, 6404
5973, 6366, 6367, 6406, 6405
5974, 6367, 6368, 6407, 6406
5975, 6368, 6369, 6408, 6407
5976, 6369, 6370, 6409, 6408
5977, 6370, 6371, 6410, 6409
5978, 6371, 6372, 6411, 6410
5979, 6372, 6373, 6412, 6411
5980, 6373, 6374, 6413, 6412
5981, 6374, 6375, 6414, 6413
5982, 6375, 6376, 6415, 6414
5983, 6376, 6377, 6416, 6415
5984, 6377, 6378, 6417, 6416
5985, 6378, 6379, 6418, 6417
5986, 6379, 6380, 6419, 6418
5987, 6380, 6381, 6420, 6419
5988, 6381, 6382, 6421, 6420
5989, 6382, 6383, 6422, 6421
5990, 6383, 6384, 6423, 6422
5991, 6384, 6385, 6424, 6423
5992, 6385, 6386, 6425, 6424
5993, 6386, 6387, 6426, 6425
5994, 6387, 6388, 6427, 6426
5995, 6388, 6389, 6428, 6427
5996, 6389, 6390, 6429, 6428
5997, 6390, 6391, 6430, 6429
5998, 6391, 6392, 6431, 6430
5999, 6392, 6393, 6432, 6431
6000, 6393,  196,  197, 6432
6001,  255, 6394, 6433,  254
6002, 6394, 6395, 6434, 6433
6003, 6395, 6396, 6435, 6434
6004, 6396, 6397, 6436, 6435
6005, 6397, 6398, 6437, 6436
6006, 6398, 6399, 6438, 6437
6007, 6399, 6400, 6439, 6438
6008, 6400, 6401, 6440, 6439
6009, 6401, 6402, 6441, 6440
6010, 6402, 6403, 6442, 6441
6011, 6403, 6404, 6443, 6442
6012, 6404, 6405, 6444, 6443
6013, 6405, 6406, 6445, 6444
6014, 6406, 6407, 6446, 6445
6015, 6407, 6408, 6447, 6446
6016, 6408, 6409, 6448, 6447
6017, 6409, 6410, 6449, 6448
6018, 6410, 6411, 6450, 6449
6019, 6411, 6412, 6451, 6450
6020, 6412, 6413, 6452, 6451
6021, 6413, 6414, 6453, 6452
6022, 6414, 6415, 6454, 6453
6023, 6415, 6416, 6455, 6454
6024, 6416, 6417, 6456, 6455
6025, 6417, 6418, 6457, 6456
6026, 6418, 6419, 6458, 6457
6027, 6419, 6420, 6459, 6458
6028, 6420, 6421, 6460, 6459
6029, 6421, 6422, 6461, 6460
6030, 6422, 6423, 6462, 6461
6031, 6423, 6424, 6463, 6462
6032, 6424, 6425, 6464, 6463
6033, 6425, 6426, 6465, 6464
6034, 6426, 6427, 6466, 6465
6035, 6427, 6428, 6467, 6466
6036, 6428, 6429, 6468, 6467
6037, 6429, 6430, 6469, 6468
6038, 6430, 6431, 6470, 6469
6039, 6431, 6432, 6471, 6470
6040, 6432,  197,  198, 6471
6041,  254, 6433, 6472,  253
6042, 6433, 6434, 6473, 6472
6043, 6434, 6435, 6474, 6473
6044, 6435, 6436, 6475, 6474
6045, 6436, 6437, 6476, 6475
6046, 6437, 6438, 6477, 6476
6047, 6438, 6439, 6478, 6477
6048, 6439, 6440, 6479, 6478
6049, 6440, 6441, 6480, 6479
6050, 6441, 6442, 6481, 6480
6051, 6442, 6443, 6482, 6481
6052, 6443, 6444, 6483, 6482
6053, 6444, 6445, 6484, 6483
6054, 6445, 6446, 6485, 6484
6055, 6446, 6447, 6486, 6485
6056, 6447, 6448, 6487, 6486
6057, 6448, 6449, 6488, 6487
6058, 6449, 6450, 6489, 6488
6059, 6450, 6451, 6490, 6489
6060, 6451, 6452, 6491, 6490
6061, 6452, 6453, 6492, 6491
6062, 6453, 6454, 6493, 6492
6063, 6454, 6455, 6494, 6493
6064, 6455, 6456, 6495, 6494
6065, 6456, 6457, 6496, 6495
6066, 6457, 6458, 6497, 6496
6067, 6458, 6459, 6498, 6497
6068, 6459, 6460, 6499, 6498
6069, 6460, 6461, 6500, 6499
6070, 6461, 6462, 6501, 6500
6071, 6462, 6463, 6502, 6501
6072, 6463, 6464, 6503, 6502
6073, 6464, 6465, 6504, 6503
6074, 6465, 6466, 6505, 6504
6075, 6466, 6467, 6506, 6505
6076, 6467, 6468, 6507, 6506
6077, 6468, 6469, 6508, 6507
6078, 6469, 6470, 6509, 6508
6079, 6470, 6471, 6510, 6509
6080, 6471,  198,  199, 6510
6081,  253, 6472, 6511,  252
6082, 6472, 6473, 6512, 6511
6083, 6473, 6474, 6513, 6512
6084, 6474, 6475, 6514, 6513
6085, 6475, 6476, 6515, 6514
6086, 6476, 6477, 6516, 6515
6087, 6477, 6478, 6517, 6516
6088, 6478, 6479, 6518, 6517
6089, 6479, 6480, 6519, 6518
6090, 6480, 6481, 6520, 6519
6091, 6481, 6482, 6521, 6520
6092, 6482, 6483, 6522, 6521
6093, 6483, 6484, 6523, 6522
6094, 6484, 6485, 6524, 6523
6095, 6485, 6486, 6525, 6524
6096, 6486, 6487, 6526, 6525
6097, 6487, 6488, 6527, 6526
6098, 6488, 6489, 6528, 6527
6099, 6489, 6490, 6529, 6528
6100, 6490, 6491, 6530, 6529
6101, 6491, 6492, 6531, 6530
6102, 6492, 6493, 6532, 6531
6103, 6493, 6494, 6533, 6532
6104, 6494, 6495, 6534, 6533
6105, 6495, 6496, 6535, 6534
6106, 6496, 6497, 6536, 6535
6107, 6497, 6498, 6537, 6536
6108, 6498, 6499, 6538, 6537
6109, 6499, 6500, 6539, 6538
6110, 6500, 6501, 6540, 6539
6111, 6501, 6502, 6541, 6540
6112, 6502, 6503, 6542, 6541
6113, 6503, 6504, 6543, 6542
6114, 6504, 6505, 6544, 6543
6115, 6505, 6506, 6545, 6544
6116, 6506, 6507, 6546, 6545
6117, 6507, 6508, 6547, 6546
6118, 6508, 6509, 6548, 6547
6119, 6509, 6510, 6549, 6548
6120, 6510,  199,  200, 6549
6121,  252, 6511, 6550,  251
6122, 6511, 6512, 6551, 6550
6123, 6512, 6513, 6552, 6551
6124, 6513, 6514, 6553, 6552
6125, 6514, 6515, 6554, 6553
6126, 6515, 6516, 6555, 6554
6127, 6516, 6517, 6556, 6555
6128, 6517, 6518, 6557, 6556
6129, 6518, 6519, 6558, 6557
6130, 6519, 6520, 6559, 6558
6131, 6520, 6521, 6560, 6559
6132, 6521, 6522, 6561, 6560
6133, 6522, 6523, 6562, 6561
6134, 6523, 6524, 6563, 6562
6135, 6524, 6525, 6564, 6563
6136, 6525, 6526, 6565, 6564
6137, 6526, 6527, 6566, 6565
6138, 6527, 6528, 6567, 6566
6139, 6528, 6529, 6568, 6567
6140, 6529, 6530, 6569, 6568
6141, 6530, 6531, 6570, 6569
6142, 6531, 6532, 6571, 6570
6143, 6532, 6533, 6572, 6571
6144, 6533, 6534, 6573, 6572
6145, 6534, 6535, 6574, 6573
6146, 6535, 6536, 6575, 6574
6147, 6536, 6537, 6576, 6575
6148, 6537, 6538, 6577, 6576
6149, 6538, 6539, 6578, 6577
6150, 6539, 6540, 6579, 6578
6151, 6540, 6541, 6580, 6579
6152, 6541, 6542, 6581, 6580
6153, 6542, 6543, 6582, 6581
6154, 6543, 6544, 6583, 6582
6155, 6544, 6545, 6584, 6583
6156, 6545, 6546, 6585, 6584
6157, 6546, 6547, 6586, 6585
6158, 6547, 6548, 6587, 6586
6159, 6548, 6549, 6588, 6587
6160, 6549,  200,  201, 6588
6161,  251, 6550, 6589,  250
6162, 6550, 6551, 6590, 6589
6163, 6551, 6552, 6591, 6590
6164, 6552, 6553, 6592, 6591
6165, 6553, 6554, 6593, 6592
6166, 6554, 6555, 6594, 6593
6167, 6555, 6556, 6595, 6594
6168, 6556, 6557, 6596, 6595
6169, 6557, 6558, 6597, 6596
6170, 6558, 6559, 6598, 6597
6171, 6559, 6560, 6599, 6598
6172, 6560, 6561, 6600, 6599
6173, 6561, 6562, 6601, 6600
6174, 6562, 6563, 6602, 6601
6175, 6563, 6564, 6603, 6602
6176, 6564, 6565, 6604, 6603
6177, 6565, 6566, 6605, 6604
6178, 6566, 6567, 6606, 6605
6179, 6567, 6568, 6607, 6606
6180, 6568, 6569, 6608, 6607
6181, 6569, 6570, 6609, 6608
6182, 6570, 6571, 6610, 6609
6183, 6571, 6572, 6611, 6610
6184, 6572, 6573, 6612, 6611
6185, 6573, 6574, 6613, 6612
6186, 6574, 6575, 6614, 6613
6187, 6575, 6576, 6615, 6614
6188, 6576, 6577, 6616, 6615
6189, 6577, 6578, 6617, 6616
6190, 6578, 6579, 6618, 6617
6191, 6579, 6580, 6619, 6618
6192, 6580, 6581, 6620, 6619
6193, 6581, 6582, 6621, 6620
6194, 6582, 6583, 6622, 6621
6195, 6583, 6584, 6623, 6622
6196, 6584, 6585, 6624, 6623
6197, 6585, 6586, 6625, 6624
6198, 6586, 6587, 6626, 6625
6199, 6587, 6588, 6627, 6626
6200, 6588,  201,  202, 6627
6201,  250, 6589, 6628,  249
6202, 6589, 6590, 6629, 6628
6203, 6590, 6591, 6630, 6629
6204, 6591, 6592, 6631, 6630
6205, 6592, 6593, 6632, 6631
6206, 6593, 6594, 6633, 6632
6207, 6594, 6595, 6634, 6633
6208, 6595, 6596, 6635, 6634
6209, 6596, 6597, 6636, 6635
6210, 6597, 6598, 6637, 6636
6211, 6598, 6599, 6638, 6637
6212, 6599, 6600, 6639, 6638
6213, 6600, 6601, 6640, 6639
6214, 6601, 6602, 6641, 6640
6215, 6602, 6603, 6642, 6641
6216, 6603, 6604, 6643, 6642
6217, 6604, 6605, 6644, 6643
6218, 6605, 6606, 6645, 6644
6219, 6606, 6607, 6646, 6645
6220, 6607, 6608, 6647, 6646
6221, 6608, 6609, 6648, 6647
6222, 6609, 6610, 6649, 6648
6223, 6610, 6611, 6650, 6649
6224, 6611, 6612, 6651, 6650
6225, 6612, 6613, 6652, 6651
6226, 6613, 6614, 6653, 6652
6227, 6614, 6615, 6654, 6653
6228, 6615, 6616, 6655, 6654
6229, 6616, 6617, 6656, 6655
6230, 6617, 6618, 6657, 6656
6231, 6618, 6619, 6658, 6657
6232, 6619, 6620, 6659, 6658
6233, 6620, 6621, 6660, 6659
6234, 6621, 6622, 6661, 6660
6235, 6622, 6623, 6662, 6661
6236, 6623, 6624, 6663, 6662
6237, 6624, 6625, 6664, 6663
6238, 6625, 6626, 6665, 6664
6239, 6626, 6627, 6666, 6665
6240, 6627,  202,  203, 6666
6241,  249, 6628, 6667,  248
6242, 6628, 6629, 6668, 6667
6243, 6629, 6630, 6669, 6668
6244, 6630, 6631, 6670, 6669
6245, 6631, 6632, 6671, 6670
6246, 6632, 6633, 6672, 6671
6247, 6633, 6634, 6673, 6672
6248, 6634, 6635, 6674, 6673
6249, 6635, 6636, 6675, 6674
6250, 6636, 6637, 6676, 6675
6251, 6637, 6638, 6677, 6676
6252, 6638, 6639, 6678, 6677
6253, 6639, 6640, 6679, 6678
6254, 6640, 6641, 6680, 6679
6255, 6641, 6642, 6681, 6680
6256, 6642, 6643, 6682, 6681
6257, 6643, 6644, 6683, 6682
6258, 6644, 6645, 6684, 6683
6259, 6645, 6646, 6685, 6684
6260, 6646, 6647, 6686, 6685
6261, 6647, 6648, 6687, 6686
6262, 6648, 6649, 6688, 6687
6263, 6649, 6650, 6689, 6688
6264, 6650, 6651, 6690, 6689
6265, 6651, 6652, 6691, 6690
6266, 6652, 6653, 6692, 6691
6267, 6653, 6654, 6693, 6692
6268, 6654, 6655, 6694, 6693
6269, 6655, 6656, 6695, 6694
6270, 6656, 6657, 6696, 6695
6271, 6657, 6658, 6697, 6696
6272, 6658, 6659, 6698, 6697
6273, 6659, 6660, 6699, 6698
6274, 6660, 6661, 6700, 6699
6275, 6661, 6662, 6701, 6700
6276, 6662, 6663, 6702, 6701
6277, 6663, 6664, 6703, 6702
6278, 6664, 6665, 6704, 6703
6279, 6665, 6666, 6705, 6704
6280, 6666,  203,  204, 6705
6281,  248, 6667, 6706,  247
6282, 6667, 6668, 6707, 6706
6283, 6668, 6669, 6708, 6707
6284, 6669, 6670, 6709, 6708
6285, 6670, 6671, 6710, 6709
6286, 6671, 6672, 6711, 6710
6287, 6672, 6673, 6712, 6711
6288, 6673, 6674, 6713, 6712
6289, 6674, 6675, 6714, 6713
6290, 6675, 6676, 6715, 6714
6291, 6676, 6677, 6716, 6715
6292, 6677, 6678, 6717, 6716
6293, 6678, 6679, 6718, 6717
6294, 6679, 6680, 6719, 6718
6295, 6680, 6681, 6720, 6719
6296, 6681, 6682, 6721, 6720
6297, 6682, 6683, 6722, 6721
6298, 6683, 6684, 6723, 6722
6299, 6684, 6685, 6724, 6723
6300, 6685, 6686, 6725, 6724
6301, 6686, 6687, 6726, 6725
6302, 6687, 6688, 6727, 6726
6303, 6688, 6689, 6728, 6727
6304, 6689, 6690, 6729, 6728
6305, 6690, 6691, 6730, 6729
6306, 6691, 6692, 6731, 6730
6307, 6692, 6693, 6732, 6731
6308, 6693, 6694, 6733, 6732
6309, 6694, 6695, 6734, 6733
6310, 6695, 6696, 6735, 6734
6311, 6696, 6697, 6736, 6735
6312, 6697, 6698, 6737, 6736
6313, 6698, 6699, 6738, 6737
6314, 6699, 6700, 6739, 6738
6315, 6700, 6701, 6740, 6739
6316, 6701, 6702, 6741, 6740
6317, 6702, 6703, 6742, 6741
6318, 6703, 6704, 6743, 6742
6319, 6704, 6705, 6744, 6743
6320, 6705,  204,  205, 6744
6321,  247, 6706, 6745,  246
6322, 6706, 6707, 6746, 6745
6323, 6707, 6708, 6747, 6746
6324, 6708, 6709, 6748, 6747
6325, 6709, 6710, 6749, 6748
6326, 6710, 6711, 6750, 6749
6327, 6711, 6712, 6751, 6750
6328, 6712, 6713, 6752, 6751
6329, 6713, 6714, 6753, 6752
6330, 6714, 6715, 6754, 6753
6331, 6715, 6716, 6755, 6754
6332, 6716, 6717, 6756, 6755
6333, 6717, 6718, 6757, 6756
6334, 6718, 6719, 6758, 6757
6335, 6719, 6720, 6759, 6758
6336, 6720, 6721, 6760, 6759
6337, 6721, 6722, 6761, 6760
6338, 6722, 6723, 6762, 6761
6339, 6723, 6724, 6763, 6762
6340, 6724, 6725, 6764, 6763
6341, 6725, 6726, 6765, 6764
6342, 6726, 6727, 6766, 6765
6343, 6727, 6728, 6767, 6766
6344, 6728, 6729, 6768, 6767
6345, 6729, 6730, 6769, 6768
6346, 6730, 6731, 6770, 6769
6347, 6731, 6732, 6771, 6770
6348, 6732, 6733, 6772, 6771
6349, 6733, 6734, 6773, 6772
6350, 6734, 6735, 6774, 6773
6351, 6735, 6736, 6775, 6774
6352, 6736, 6737, 6776, 6775
6353, 6737, 6738, 6777, 6776
6354, 6738, 6739, 6778, 6777
6355, 6739, 6740, 6779, 6778
6356, 6740, 6741, 6780, 6779
6357, 6741, 6742, 6781, 6780
6358, 6742, 6743, 6782, 6781
6359, 6743, 6744, 6783, 6782
6360, 6744,  205,  206, 6783
6361,  246, 6745,  245,    4
6362, 6745, 6746,  244,  245
6363, 6746, 6747,  243,  244
6364, 6747, 6748,  242,  243
6365, 6748, 6749,  241,  242
6366, 6749, 6750,  240,  241
6367, 6750, 6751,  239,  240
6368, 6751, 6752,  238,  239
6369, 6752, 6753,  237,  238
6370, 6753, 6754,  236,  237
6371, 6754, 6755,  235,  236
6372, 6755, 6756,  234,  235
6373, 6756, 6757,  233,  234
6374, 6757, 6758,  232,  233
6375, 6758, 6759,  231,  232
6376, 6759, 6760,  230,  231
6377, 6760, 6761,  229,  230
6378, 6761, 6762,  228,  229
6379, 6762, 6763,  227,  228
6380, 6763, 6764,  226,  227
6381, 6764, 6765,  225,  226
6382, 6765, 6766,  224,  225
6383, 6766, 6767,  223,  224
6384, 6767, 6768,  222,  223
6385, 6768, 6769,  221,  222
6386, 6769, 6770,  220,  221
6387, 6770, 6771,  219,  220
6388, 6771, 6772,  218,  219
6389, 6772, 6773,  217,  218
6390, 6773, 6774,  216,  217
6391, 6774, 6775,  215,  216
6392, 6775, 6776,  214,  215
6393, 6776, 6777,  213,  214
6394, 6777, 6778,  212,  213
6395, 6778, 6779,  211,  212
6396, 6779, 6780,  210,  211
6397, 6780, 6781,  209,  210
6398, 6781, 6782,  208,  209
6399, 6782, 6783,  207,  208
6400, 6783,  206,    3,  207
6401,    4,  245, 6784,  493
6402,  245,  244, 6785, 6784
6403,  244,  243, 6786, 6785
6404,  243,  242, 6787, 6786
6405,  242,  241, 6788, 6787
6406,  241,  240, 6789, 6788
6407,  240,  239, 6790, 6789
6408,  239,  238, 6791, 6790
6409,  238,  237, 6792, 6791
6410,  237,  236, 6793, 6792
6411,  236,  235, 6794, 6793
6412,  235,  234, 6795, 6794
6413,  234,  233, 6796, 6795
6414,  233,  232, 6797, 6796
6415,  232,  231, 6798, 6797
6416,  231,  230, 6799, 6798
6417,  230,  229, 6800, 6799
6418,  229,  228, 6801, 6800
6419,  228,  227, 6802, 6801
6420,  227,  226, 6803, 6802
6421,  226,  225, 6804, 6803
6422,  225,  224, 6805, 6804
6423,  224,  223, 6806, 6805
6424,  223,  222, 6807, 6806
6425,  222,  221, 6808, 6807
6426,  221,  220, 6809, 6808
6427,  220,  219, 6810, 6809
6428,  219,  218, 6811, 6810
6429,  218,  217, 6812, 6811
6430,  217,  216, 6813, 6812
6431,  216,  215, 6814, 6813
6432,  215,  214, 6815, 6814
6433,  214,  213, 6816, 6815
6434,  213,  212, 6817, 6816
6435,  212,  211, 6818, 6817
6436,  211,  210, 6819, 6818
6437,  210,  209, 6820, 6819
6438,  209,  208, 6821, 6820
6439,  208,  207, 6822, 6821
6440,  207,    3,  405, 6822
6441,  493, 6784, 6823,  492
6442, 6784, 6785, 6824, 6823
6443, 6785, 6786, 6825, 6824
6444, 6786, 6787, 6826, 6825
6445, 6787, 6788, 6827, 6826
6446, 6788, 6789, 6828, 6827
6447, 6789, 6790, 6829, 6828
6448, 6790, 6791, 6830, 6829
6449, 6791, 6792, 6831, 6830
6450, 6792, 6793, 6832, 6831
6451, 6793, 6794, 6833, 6832
6452, 6794, 6795, 6834, 6833
6453, 6795, 6796, 6835, 6834
6454, 6796, 6797, 6836, 6835
6455, 6797, 6798, 6837, 6836
6456, 6798, 6799, 6838, 6837
6457, 6799, 6800, 6839, 6838
6458, 6800, 6801, 6840, 6839
6459, 6801, 6802, 6841, 6840
6460, 6802, 6803, 6842, 6841
6461, 6803, 6804, 6843, 6842
6462, 6804, 6805, 6844, 6843
6463, 6805, 6806, 6845, 6844
6464, 6806, 6807, 6846, 6845
6465, 6807, 6808, 6847, 6846
6466, 6808, 6809, 6848, 6847
6467, 6809, 6810, 6849, 6848
6468, 6810, 6811, 6850, 6849
6469, 6811, 6812, 6851, 6850
6470, 6812, 6813, 6852, 6851
6471, 6813, 6814, 6853, 6852
6472, 6814, 6815, 6854, 6853
6473, 6815, 6816, 6855, 6854
6474, 6816, 6817, 6856, 6855
6475, 6817, 6818, 6857, 6856
6476, 6818, 6819, 6858, 6857
6477, 6819, 6820, 6859, 6858
6478, 6820, 6821, 6860, 6859
6479, 6821, 6822, 6861, 6860
6480, 6822,  405,  406, 6861
6481,  492, 6823, 6862,  491
6482, 6823, 6824, 6863, 6862
6483, 6824, 6825, 6864, 6863
6484, 6825, 6826, 6865, 6864
6485, 6826, 6827, 6866, 6865
6486, 6827, 6828, 6867, 6866
6487, 6828, 6829, 6868, 6867
6488, 6829, 6830, 6869, 6868
6489, 6830, 6831, 6870, 6869
6490, 6831, 6832, 6871, 6870
6491, 6832, 6833, 6872, 6871
6492, 6833, 6834, 6873, 6872
6493, 6834, 6835, 6874, 6873
6494, 6835, 6836, 6875, 6874
6495, 6836, 6837, 6876, 6875
6496, 6837, 6838, 6877, 6876
6497, 6838, 6839, 6878, 6877
6498, 6839, 6840, 6879, 6878
6499, 6840, 6841, 6880, 6879
6500, 6841, 6842, 6881, 6880
6501, 6842, 6843, 6882, 6881
6502, 6843, 6844, 6883, 6882
6503, 6844, 6845, 6884, 6883
6504, 6845, 6846, 6885, 6884
6505, 6846, 6847, 6886, 6885
6506, 6847, 6848, 6887, 6886
6507, 6848, 6849, 6888, 6887
6508, 6849, 6850, 6889, 6888
6509, 6850, 6851, 6890, 6889
6510, 6851, 6852, 6891, 6890
6511, 6852, 6853, 6892, 6891
6512, 6853, 6854, 6893, 6892
6513, 6854, 6855, 6894, 6893
6514, 6855, 6856, 6895, 6894
6515, 6856, 6857, 6896, 6895
6516, 6857, 6858, 6897, 6896
6517, 6858, 6859, 6898, 6897
6518, 6859, 6860, 6899, 6898
6519, 6860, 6861, 6900, 6899
6520, 6861,  406,  407, 6900
6521,  491, 6862, 6901,  490
6522, 6862, 6863, 6902, 6901
6523, 6863, 6864, 6903, 6902
6524, 6864, 6865, 6904, 6903
6525, 6865, 6866, 6905, 6904
6526, 6866, 6867, 6906, 6905
6527, 6867, 6868, 6907, 6906
6528, 6868, 6869, 6908, 6907
6529, 6869, 6870, 6909, 6908
6530, 6870, 6871, 6910, 6909
6531, 6871, 6872, 6911, 6910
6532, 6872, 6873, 6912, 6911
6533, 6873, 6874, 6913, 6912
6534, 6874, 6875, 6914, 6913
6535, 6875, 6876, 6915, 6914
6536, 6876, 6877, 6916, 6915
6537, 6877, 6878, 6917, 6916
6538, 6878, 6879, 6918, 6917
6539, 6879, 6880, 6919, 6918
6540, 6880, 6881, 6920, 6919
6541, 6881, 6882, 6921, 6920
6542, 6882, 6883, 6922, 6921
6543, 6883, 6884, 6923, 6922
6544, 6884, 6885, 6924, 6923
6545, 6885, 6886, 6925, 6924
6546, 6886, 6887, 6926, 6925
6547, 6887, 6888, 6927, 6926
6548, 6888, 6889, 6928, 6927
6549, 6889, 6890, 6929, 6928
6550, 6890, 6891, 6930, 6929
6551, 6891, 6892, 6931, 6930
6552, 6892, 6893, 6932, 6931
6553, 6893, 6894, 6933, 6932
6554, 6894, 6895, 6934, 6933
6555, 6895, 6896, 6935, 6934
6556, 6896, 6897, 6936, 6935
6557, 6897, 6898, 6937, 6936
6558, 6898, 6899, 6938, 6937
6559, 6899, 6900, 6939, 6938
6560, 6900,  407,  408, 6939
6561,  490, 6901, 6940,  489
6562, 6901, 6902, 6941, 6940
6563, 6902, 6903, 6942, 6941
6564, 6903, 6904, 6943, 6942
6565, 6904, 6905, 6944, 6943
6566, 6905, 6906, 6945, 6944
6567, 6906, 6907, 6946, 6945
6568, 6907, 6908, 6947, 6946
6569, 6908, 6909, 6948, 6947
6570, 6909, 6910, 6949, 6948
6571, 6910, 6911, 6950, 6949
6572, 6911, 6912, 6951, 6950
6573, 6912, 6913, 6952, 6951
6574, 6913, 6914, 6953, 6952
6575, 6914, 6915, 6954, 6953
6576, 6915, 6916, 6955, 6954
6577, 6916, 6917, 6956, 6955
6578, 6917, 6918, 6957, 6956
6579, 6918, 6919, 6958, 6957
6580, 6919, 6920, 6959, 6958
6581, 6920, 6921, 6960, 6959
6582, 6921, 6922, 6961, 6960
6583, 6922, 6923, 6962, 6961
6584, 6923, 6924, 6963, 6962
6585, 6924, 6925, 6964, 6963
6586, 6925, 6926, 6965, 6964
6587, 6926, 6927, 6966, 6965
6588, 6927, 6928, 6967, 6966
6589, 6928, 6929, 6968, 6967
6590, 6929, 6930, 6969, 6968
6591, 6930, 6931, 6970, 6969
6592, 6931, 6932, 6971, 6970
6593, 6932, 6933, 6972, 6971
6594, 6933, 6934, 6973, 6972
6595, 6934, 6935, 6974, 6973
6596, 6935, 6936, 6975, 6974
6597, 6936, 6937, 6976, 6975
6598, 6937, 6938, 6977, 6976
6599, 6938, 6939, 6978, 6977
6600, 6939,  408,  409, 6978
6601,  489, 6940, 6979,  488
6602, 6940, 6941, 6980, 6979
6603, 6941, 6942, 6981, 6980
6604, 6942, 6943, 6982, 6981
6605, 6943, 6944, 6983, 6982
6606, 6944, 6945, 6984, 6983
6607, 6945, 6946, 6985, 6984
6608, 6946, 6947, 6986, 6985
6609, 6947, 6948, 6987, 6986
6610, 6948, 6949, 6988, 6987
6611, 6949, 6950, 6989, 6988
6612, 6950, 6951, 6990, 6989
6613, 6951, 6952, 6991, 6990
6614, 6952, 6953, 6992, 6991
6615, 6953, 6954, 6993, 6992
6616, 6954, 6955, 6994, 6993
6617, 6955, 6956, 6995, 6994
6618, 6956, 6957, 6996, 6995
6619, 6957, 6958, 6997, 6996
6620, 6958, 6959, 6998, 6997
6621, 6959, 6960, 6999, 6998
6622, 6960, 6961, 7000, 6999
6623, 6961, 6962, 7001, 7000
6624, 6962, 6963, 7002, 7001
6625, 6963, 6964, 7003, 7002
6626, 6964, 6965, 7004, 7003
6627, 6965, 6966, 7005, 7004
6628, 6966, 6967, 7006, 7005
6629, 6967, 6968, 7007, 7006
6630, 6968, 6969, 7008, 7007
6631, 6969, 6970, 7009, 7008
6632, 6970, 6971, 7010, 7009
6633, 6971, 6972, 7011, 7010
6634, 6972, 6973, 7012, 7011
6635, 6973, 6974, 7013, 7012
6636, 6974, 6975, 7014, 7013
6637, 6975, 6976, 7015, 7014
6638, 6976, 6977, 7016, 7015
6639, 6977, 6978, 7017, 7016
6640, 6978,  409,  410, 7017
6641,  488, 6979, 7018,  487
6642, 6979, 6980, 7019, 7018
6643, 6980, 6981, 7020, 7019
6644, 6981, 6982, 7021, 7020
6645, 6982, 6983, 7022, 7021
6646, 6983, 6984, 7023, 7022
6647, 6984, 6985, 7024, 7023
6648, 6985, 6986, 7025, 7024
6649, 6986, 6987, 7026, 7025
6650, 6987, 6988, 7027, 7026
6651, 6988, 6989, 7028, 7027
6652, 6989, 6990, 7029, 7028
6653, 6990, 6991, 7030, 7029
6654, 6991, 6992, 7031, 7030
6655, 6992, 6993, 7032, 7031
6656, 6993, 6994, 7033, 7032
6657, 6994, 6995, 7034, 7033
6658, 6995, 6996, 7035, 7034
6659, 6996, 6997, 7036, 7035
6660, 6997, 6998, 7037, 7036
6661, 6998, 6999, 7038, 7037
6662, 6999, 7000, 7039, 7038
6663, 7000, 7001, 7040, 7039
6664, 7001, 7002, 7041, 7040
6665, 7002, 7003, 7042, 7041
6666, 7003, 7004, 7043, 7042
6667, 7004, 7005, 7044, 7043
6668, 7005, 7006, 7045, 7044
6669, 7006, 7007, 7046, 7045
6670, 7007, 7008, 7047, 7046
6671, 7008, 7009, 7048, 7047
6672, 7009, 7010, 7049, 7048
6673, 7010, 7011, 7050, 7049
6674, 7011, 7012, 7051, 7050
6675, 7012, 7013, 7052, 7051
6676, 7013, 7014, 7053, 7052
6677, 7014, 7015, 7054, 7053
6678, 7015, 7016, 7055, 7054
6679, 7016, 7017, 7056, 7055
6680, 7017,  410,  411, 7056
6681,  487, 7018, 7057,  486
6682, 7018, 7019, 7058, 7057
6683, 7019, 7020, 7059, 7058
6684, 7020, 7021, 7060, 7059
6685, 7021, 7022, 7061, 7060
6686, 7022, 7023, 7062, 7061
6687, 7023, 7024, 7063, 7062
6688, 7024, 7025, 7064, 7063
6689, 7025, 7026, 7065, 7064
6690, 7026, 7027, 7066, 7065
6691, 7027, 7028, 7067, 7066
6692, 7028, 7029, 7068, 7067
6693, 7029, 7030, 7069, 7068
6694, 7030, 7031, 7070, 7069
6695, 7031, 7032, 7071, 7070
6696, 7032, 7033, 7072, 7071
6697, 7033, 7034, 7073, 7072
6698, 7034, 7035, 7074, 7073
6699, 7035, 7036, 7075, 7074
6700, 7036, 7037, 7076, 7075
6701, 7037, 7038, 7077, 7076
6702, 7038, 7039, 7078, 7077
6703, 7039, 7040, 7079, 7078
6704, 7040, 7041, 7080, 7079
6705, 7041, 7042, 7081, 7080
6706, 7042, 7043, 7082, 7081
6707, 7043, 7044, 7083, 7082
6708, 7044, 7045, 7084, 7083
6709, 7045, 7046, 7085, 7084
6710, 7046, 7047, 7086, 7085
6711, 7047, 7048, 7087, 7086
6712, 7048, 7049, 7088, 7087
6713, 7049, 7050, 7089, 7088
6714, 7050, 7051, 7090, 7089
6715, 7051, 7052, 7091, 7090
6716, 7052, 7053, 7092, 7091
6717, 7053, 7054, 7093, 7092
6718, 7054, 7055, 7094, 7093
6719, 7055, 7056, 7095, 7094
6720, 7056,  411,  412, 7095
6721,  486, 7057, 7096,  485
6722, 7057, 7058, 7097, 7096
6723, 7058, 7059, 7098, 7097
6724, 7059, 7060, 7099, 7098
6725, 7060, 7061, 7100, 7099
6726, 7061, 7062, 7101, 7100
6727, 7062, 7063, 7102, 7101
6728, 7063, 7064, 7103, 7102
6729, 7064, 7065, 7104, 7103
6730, 7065, 7066, 7105, 7104
6731, 7066, 7067, 7106, 7105
6732, 7067, 7068, 7107, 7106
6733, 7068, 7069, 7108, 7107
6734, 7069, 7070, 7109, 7108
6735, 7070, 7071, 7110, 7109
6736, 7071, 7072, 7111, 7110
6737, 7072, 7073, 7112, 7111
6738, 7073, 7074, 7113, 7112
6739, 7074, 7075, 7114, 7113
6740, 7075, 7076, 7115, 7114
6741, 7076, 7077, 7116, 7115
6742, 7077, 7078, 7117, 7116
6743, 7078, 7079, 7118, 7117
6744, 7079, 7080, 7119, 7118
6745, 7080, 7081, 7120, 7119
6746, 7081, 7082, 7121, 7120
6747, 7082, 7083, 7122, 7121
6748, 7083, 7084, 7123, 7122
6749, 7084, 7085, 7124, 7123
6750, 7085, 7086, 7125, 7124
6751, 7086, 7087, 7126, 7125
6752, 7087, 7088, 7127, 7126
6753, 7088, 7089, 7128, 7127
6754, 7089, 7090, 7129, 7128
6755, 7090, 7091, 7130, 7129
6756, 7091, 7092, 7131, 7130
6757, 7092, 7093, 7132, 7131
6758, 7093, 7094, 7133, 7132
6759, 7094, 7095, 7134, 7133
6760, 7095,  412,  413, 7134
6761,  485, 7096, 7135,  484
6762, 7096, 7097, 7136, 7135
6763, 7097, 7098, 7137, 7136
6764, 7098, 7099, 7138, 7137
6765, 7099, 7100, 7139, 7138
6766, 7100, 7101, 7140, 7139
6767, 7101, 7102, 7141, 7140
6768, 7102, 7103, 7142, 7141
6769, 7103, 7104, 7143, 7142
6770, 7104, 7105, 7144, 7143
6771, 7105, 7106, 7145, 7144
6772, 7106, 7107, 7146, 7145
6773, 7107, 7108, 7147, 7146
6774, 7108, 7109, 7148, 7147
6775, 7109, 7110, 7149, 7148
6776, 7110, 7111, 7150, 7149
6777, 7111, 7112, 7151, 7150
6778, 7112, 7113, 7152, 7151
6779, 7113, 7114, 7153, 7152
6780, 7114, 7115, 7154, 7153
6781, 7115, 7116, 7155, 7154
6782, 7116, 7117, 7156, 7155
6783, 7117, 7118, 7157, 7156
6784, 7118, 7119, 7158, 7157
6785, 7119, 7120, 7159, 7158
6786, 7120, 7121, 7160, 7159
6787, 7121, 7122, 7161, 7160
6788, 7122, 7123, 7162, 7161
6789, 7123, 7124, 7163, 7162
6790, 7124, 7125, 7164, 7163
6791, 7125, 7126, 7165, 7164
6792, 7126, 7127, 7166, 7165
6793, 7127, 7128, 7167, 7166
6794, 7128, 7129, 7168, 7167
6795, 7129, 7130, 7169, 7168
6796, 7130, 7131, 7170, 7169
6797, 7131, 7132, 7171, 7170
6798, 7132, 7133, 7172, 7171
6799, 7133, 7134, 7173, 7172
6800, 7134,  413,  414, 7173
6801,  484, 7135, 7174,  483
6802, 7135, 7136, 7175, 7174
6803, 7136, 7137, 7176, 7175
6804, 7137, 7138, 7177, 7176
6805, 7138, 7139, 7178, 7177
6806, 7139, 7140, 7179, 7178
6807, 7140, 7141, 7180, 7179
6808, 7141, 7142, 7181, 7180
6809, 7142, 7143, 7182, 7181
6810, 7143, 7144, 7183, 7182
6811, 7144, 7145, 7184, 7183
6812, 7145, 7146, 7185, 7184
6813, 7146, 7147, 7186, 7185
6814, 7147, 7148, 7187, 7186
6815, 7148, 7149, 7188, 7187
6816, 7149, 7150, 7189, 7188
6817, 7150, 7151, 7190, 7189
6818, 7151, 7152, 7191, 7190
6819, 7152, 7153, 7192, 7191
6820, 7153, 7154, 7193, 7192
6821, 7154, 7155, 7194, 7193
6822, 7155, 7156, 7195, 7194
6823, 7156, 7157, 7196, 7195
6824, 7157, 7158, 7197, 7196
6825, 7158, 7159, 7198, 7197
6826, 7159, 7160, 7199, 7198
6827, 7160, 7161, 7200, 7199
6828, 7161, 7162, 7201, 7200
6829, 7162, 7163, 7202, 7201
6830, 7163, 7164, 7203, 7202
6831, 7164, 7165, 7204, 7203
6832, 7165, 7166, 7205, 7204
6833, 7166, 7167, 7206, 7205
6834, 7167, 7168, 7207, 7206
6835, 7168, 7169, 7208, 7207
6836, 7169, 7170, 7209, 7208
6837, 7170, 7171, 7210, 7209
6838, 7171, 7172, 7211, 7210
6839, 7172, 7173, 7212, 7211
6840, 7173,  414,  415, 7212
6841,  483, 7174, 7213,  482
6842, 7174, 7175, 7214, 7213
6843, 7175, 7176, 7215, 7214
6844, 7176, 7177, 7216, 7215
6845, 7177, 7178, 7217, 7216
6846, 7178, 7179, 7218, 7217
6847, 7179, 7180, 7219, 7218
6848, 7180, 7181, 7220, 7219
6849, 7181, 7182, 7221, 7220
6850, 7182, 7183, 7222, 7221
6851, 7183, 7184, 7223, 7222
6852, 7184, 7185, 7224, 7223
6853, 7185, 7186, 7225, 7224
6854, 7186, 7187, 7226, 7225
6855, 7187, 7188, 7227, 7226
6856, 7188, 7189, 7228, 7227
6857, 7189, 7190, 7229, 7228
6858, 7190, 7191, 7230, 7229
6859, 7191, 7192, 7231, 7230
6860, 7192, 7193, 7232, 7231
6861, 7193, 7194, 7233, 7232
6862, 7194, 7195, 7234, 7233
6863, 7195, 7196, 7235, 7234
6864, 7196, 7197, 7236, 7235
6865, 7197, 7198, 7237, 7236
6866, 7198, 7199, 7238, 7237
6867, 7199, 7200, 7239, 7238
6868, 7200, 7201, 7240, 7239
6869, 7201, 7202, 7241, 7240
6870, 7202, 7203, 7242, 7241
6871, 7203, 7204, 7243, 7242
6872, 7204, 7205, 7244, 7243
6873, 7205, 7206, 7245, 7244
6874, 7206, 7207, 7246, 7245
6875, 7207, 7208, 7247, 7246
6876, 7208, 7209, 7248, 7247
6877, 7209, 7210, 7249, 7248
6878, 7210, 7211, 7250, 7249
6879, 7211, 7212, 7251, 7250
6880, 7212,  415,  416, 7251
6881,  482, 7213, 7252,  481
6882, 7213, 7214, 7253, 7252
6883, 7214, 7215, 7254, 7253
6884, 7215, 7216, 7255, 7254
6885, 7216, 7217, 7256, 7255
6886, 7217, 7218, 7257, 7256
6887, 7218, 7219, 7258, 7257
6888, 7219, 7220, 7259, 7258
6889, 7220, 7221, 7260, 7259
6890, 7221, 7222, 7261, 7260
6891, 7222, 7223, 7262, 7261
6892, 7223, 7224, 7263, 7262
6893, 7224, 7225, 7264, 7263
6894, 7225, 7226, 7265, 7264
6895, 7226, 7227, 7266, 7265
6896, 7227, 7228, 7267, 7266
6897, 7228, 7229, 7268, 7267
6898, 7229, 7230, 7269, 7268
6899, 7230, 7231, 7270, 7269
6900, 7231, 7232, 7271, 7270
6901, 7232, 7233, 7272, 7271
6902, 7233, 7234, 7273, 7272
6903, 7234, 7235, 7274, 7273
6904, 7235, 7236, 7275, 7274
6905, 7236, 7237, 7276, 7275
6906, 7237, 7238, 7277, 7276
6907, 7238, 7239, 7278, 7277
6908, 7239, 7240, 7279, 7278
6909, 7240, 7241, 7280, 7279
6910, 7241, 7242, 7281, 7280
6911, 7242, 7243, 7282, 7281
6912, 7243, 7244, 7283, 7282
6913, 7244, 7245, 7284, 7283
6914, 7245, 7246, 7285, 7284
6915, 7246, 7247, 7286, 7285
6916, 7247, 7248, 7287, 7286
6917, 7248, 7249, 7288, 7287
6918, 7249, 7250, 7289, 7288
6919, 7250, 7251, 7290, 7289
6920, 7251,  416,  417, 7290
6921,  481, 7252, 7291,  480
6922, 7252, 7253, 7292, 7291
6923, 7253, 7254, 7293, 7292
6924, 7254, 7255, 7294, 7293
6925, 7255, 7256, 7295, 7294
6926, 7256, 7257, 7296, 7295
6927, 7257, 7258, 7297, 7296
6928, 7258, 7259, 7298, 7297
6929, 7259, 7260, 7299, 7298
6930, 7260, 7261, 7300, 7299
6931, 7261, 7262, 7301, 7300
6932, 7262, 7263, 7302, 7301
6933, 7263, 7264, 7303, 7302
6934, 7264, 7265, 7304, 7303
6935, 7265, 7266, 7305, 7304
6936, 7266, 7267, 7306, 7305
6937, 7267, 7268, 7307, 7306
6938, 7268, 7269, 7308, 7307
6939, 7269, 7270, 7309, 7308
6940, 7270, 7271, 7310, 7309
6941, 7271, 7272, 7311, 7310
6942, 7272, 7273, 7312, 7311
6943, 7273, 7274, 7313, 7312
6944, 7274, 7275, 7314, 7313
6945, 7275, 7276, 7315, 7314
6946, 7276, 7277, 7316, 7315
6947, 7277, 7278, 7317, 7316
6948, 7278, 7279, 7318, 7317
6949, 7279, 7280, 7319, 7318
6950, 7280, 7281, 7320, 7319
6951, 7281, 7282, 7321, 7320
6952, 7282, 7283, 7322, 7321
6953, 7283, 7284, 7323, 7322
6954, 7284, 7285, 7324, 7323
6955, 7285, 7286, 7325, 7324
6956, 7286, 7287, 7326, 7325
6957, 7287, 7288, 7327, 7326
6958, 7288, 7289, 7328, 7327
6959, 7289, 7290, 7329, 7328
6960, 7290,  417,  418, 7329
6961,  480, 7291, 7330,  479
6962, 7291, 7292, 7331, 7330
6963, 7292, 7293, 7332, 7331
6964, 7293, 7294, 7333, 7332
6965, 7294, 7295, 7334, 7333
6966, 7295, 7296, 7335, 7334
6967, 7296, 7297, 7336, 7335
6968, 7297, 7298, 7337, 7336
6969, 7298, 7299, 7338, 7337
6970, 7299, 7300, 7339, 7338
6971, 7300, 7301, 7340, 7339
6972, 7301, 7302, 7341, 7340
6973, 7302, 7303, 7342, 7341
6974, 7303, 7304, 7343, 7342
6975, 7304, 7305, 7344, 7343
6976, 7305, 7306, 7345, 7344
6977, 7306, 7307, 7346, 7345
6978, 7307, 7308, 7347, 7346
6979, 7308, 7309, 7348, 7347
6980, 7309, 7310, 7349, 7348
6981, 7310, 7311, 7350, 7349
6982, 7311, 7312, 7351, 7350
6983, 7312, 7313, 7352, 7351
6984, 7313, 7314, 7353, 7352
6985, 7314, 7315, 7354, 7353
6986, 7315, 7316, 7355, 7354
6987, 7316, 7317, 7356, 7355
6988, 7317, 7318, 7357, 7356
6989, 7318, 7319, 7358, 7357
6990, 7319, 7320, 7359, 7358
6991, 7320, 7321, 7360, 7359
6992, 7321, 7322, 7361, 7360
6993, 7322, 7323, 7362, 7361
6994, 7323, 7324, 7363, 7362
6995, 7324, 7325, 7364, 7363
6996, 7325, 7326, 7365, 7364
6997, 7326, 7327, 7366, 7365
6998, 7327, 7328, 7367, 7366
6999, 7328, 7329, 7368, 7367
7000, 7329,  418,  419, 7368
7001,  479, 7330, 7369,  478
7002, 7330, 7331, 7370, 7369
7003, 7331, 7332, 7371, 7370
7004, 7332, 7333, 7372, 7371
7005, 7333, 7334, 7373, 7372
7006, 7334, 7335, 7374, 7373
7007, 7335, 7336, 7375, 7374
7008, 7336, 7337, 7376, 7375
7009, 7337, 7338, 7377, 7376
7010, 7338, 7339, 7378, 7377
7011, 7339, 7340, 7379, 7378
7012, 7340, 7341, 7380, 7379
7013, 7341, 7342, 7381, 7380
7014, 7342, 7343, 7382, 7381
7015, 7343, 7344, 7383, 7382
7016, 7344, 7345, 7384, 7383
7017, 7345, 7346, 7385, 7384
7018, 7346, 7347, 7386, 7385
7019, 7347, 7348, 7387, 7386
7020, 7348, 7349, 7388, 7387
7021, 7349, 7350, 7389, 7388
7022, 7350, 7351, 7390, 7389
7023, 7351, 7352, 7391, 7390
7024, 7352, 7353, 7392, 7391
7025, 7353, 7354, 7393, 7392
7026, 7354, 7355, 7394, 7393
7027, 7355, 7356, 7395, 7394
7028, 7356, 7357, 7396, 7395
7029, 7357, 7358, 7397, 7396
7030, 7358, 7359, 7398, 7397
7031, 7359, 7360, 7399, 7398
7032, 7360, 7361, 7400, 7399
7033, 7361, 7362, 7401, 7400
7034, 7362, 7363, 7402, 7401
7035, 7363, 7364, 7403, 7402
7036, 7364, 7365, 7404, 7403
7037, 7365, 7366, 7405, 7404
7038, 7366, 7367, 7406, 7405
7039, 7367, 7368, 7407, 7406
7040, 7368,  419,  420, 7407
7041,  478, 7369, 7408,  477
7042, 7369, 7370, 7409, 7408
7043, 7370, 7371, 7410, 7409
7044, 7371, 7372, 7411, 7410
7045, 7372, 7373, 7412, 7411
7046, 7373, 7374, 7413, 7412
7047, 7374, 7375, 7414, 7413
7048, 7375, 7376, 7415, 7414
7049, 7376, 7377, 7416, 7415
7050, 7377, 7378, 7417, 7416
7051, 7378, 7379, 7418, 7417
7052, 7379, 7380, 7419, 7418
7053, 7380, 7381, 7420, 7419
7054, 7381, 7382, 7421, 7420
7055, 7382, 7383, 7422, 7421
7056, 7383, 7384, 7423, 7422
7057, 7384, 7385, 7424, 7423
7058, 7385, 7386, 7425, 7424
7059, 7386, 7387, 7426, 7425
7060, 7387, 7388, 7427, 7426
7061, 7388, 7389, 7428, 7427
7062, 7389, 7390, 7429, 7428
7063, 7390, 7391, 7430, 7429
7064, 7391, 7392, 7431, 7430
7065, 7392, 7393, 7432, 7431
7066, 7393, 7394, 7433, 7432
7067, 7394, 7395, 7434, 7433
7068, 7395, 7396, 7435, 7434
7069, 7396, 7397, 7436, 7435
7070, 7397, 7398, 7437, 7436
7071, 7398, 7399, 7438, 7437
7072, 7399, 7400, 7439, 7438
7073, 7400, 7401, 7440, 7439
7074, 7401, 7402, 7441, 7440
7075, 7402, 7403, 7442, 7441
7076, 7403, 7404, 7443, 7442
7077, 7404, 7405, 7444, 7443
7078, 7405, 7406, 7445, 7444
7079, 7406, 7407, 7446, 7445
7080, 7407,  420,  421, 7446
7081,  477, 7408, 7447,  476
7082, 7408, 7409, 7448, 7447
7083, 7409, 7410, 7449, 7448
7084, 7410, 7411, 7450, 7449
7085, 7411, 7412, 7451, 7450
7086, 7412, 7413, 7452, 7451
7087, 7413, 7414, 7453, 7452
7088, 7414, 7415, 7454, 7453
7089, 7415, 7416, 7455, 7454
7090, 7416, 7417, 7456, 7455
7091, 7417, 7418, 7457, 7456
7092, 7418, 7419, 7458, 7457
7093, 7419, 7420, 7459, 7458
7094, 7420, 7421, 7460, 7459
7095, 7421, 7422, 7461, 7460
7096, 7422, 7423, 7462, 7461
7097, 7423, 7424, 7463, 7462
7098, 7424, 7425, 7464, 7463
7099, 7425, 7426, 7465, 7464
7100, 7426, 7427, 7466, 7465
7101, 7427, 7428, 7467, 7466
7102, 7428, 7429, 7468, 7467
7103, 7429, 7430, 7469, 7468
7104, 7430, 7431, 7470, 7469
7105, 7431, 7432, 7471, 7470
7106, 7432, 7433, 7472, 7471
7107, 7433, 7434, 7473, 7472
7108, 7434, 7435, 7474, 7473
7109, 7435, 7436, 7475, 7474
7110, 7436, 7437, 7476, 7475
7111, 7437, 7438, 7477, 7476
7112, 7438, 7439, 7478, 7477
7113, 7439, 7440, 7479, 7478
7114, 7440, 7441, 7480, 7479
7115, 7441, 7442, 7481, 7480
7116, 7442, 7443, 7482, 7481
7117, 7443, 7444, 7483, 7482
7118, 7444, 7445, 7484, 7483
7119, 7445, 7446, 7485, 7484
7120, 7446,  421,  422, 7485
7121,  476, 7447, 7486,  475
7122, 7447, 7448, 7487, 7486
7123, 7448, 7449, 7488, 7487
7124, 7449, 7450, 7489, 7488
7125, 7450, 7451, 7490, 7489
7126, 7451, 7452, 7491, 7490
7127, 7452, 7453, 7492, 7491
7128, 7453, 7454, 7493, 7492
7129, 7454, 7455, 7494, 7493
7130, 7455, 7456, 7495, 7494
7131, 7456, 7457, 7496, 7495
7132, 7457, 7458, 7497, 7496
7133, 7458, 7459, 7498, 7497
7134, 7459, 7460, 7499, 7498
7135, 7460, 7461, 7500, 7499
7136, 7461, 7462, 7501, 7500
7137, 7462, 7463, 7502, 7501
7138, 7463, 7464, 7503, 7502
7139, 7464, 7465, 7504, 7503
7140, 7465, 7466, 7505, 7504
7141, 7466, 7467, 7506, 7505
7142, 7467, 7468, 7507, 7506
7143, 7468, 7469, 7508, 7507
7144, 7469, 7470, 7509, 7508
7145, 7470, 7471, 7510, 7509
7146, 7471, 7472, 7511, 7510
7147, 7472, 7473, 7512, 7511
7148, 7473, 7474, 7513, 7512
7149, 7474, 7475, 7514, 7513
7150, 7475, 7476, 7515, 7514
7151, 7476, 7477, 7516, 7515
7152, 7477, 7478, 7517, 7516
7153, 7478, 7479, 7518, 7517
7154, 7479, 7480, 7519, 7518
7155, 7480, 7481, 7520, 7519
7156, 7481, 7482, 7521, 7520
7157, 7482, 7483, 7522, 7521
7158, 7483, 7484, 7523, 7522
7159, 7484, 7485, 7524, 7523
7160, 7485,  422,  423, 7524
7161,  475, 7486, 7525,  474
7162, 7486, 7487, 7526, 7525
7163, 7487, 7488, 7527, 7526
7164, 7488, 7489, 7528, 7527
7165, 7489, 7490, 7529, 7528
7166, 7490, 7491, 7530, 7529
7167, 7491, 7492, 7531, 7530
7168, 7492, 7493, 7532, 7531
7169, 7493, 7494, 7533, 7532
7170, 7494, 7495, 7534, 7533
7171, 7495, 7496, 7535, 7534
7172, 7496, 7497, 7536, 7535
7173, 7497, 7498, 7537, 7536
7174, 7498, 7499, 7538, 7537
7175, 7499, 7500, 7539, 7538
7176, 7500, 7501, 7540, 7539
7177, 7501, 7502, 7541, 7540
7178, 7502, 7503, 7542, 7541
7179, 7503, 7504, 7543, 7542
7180, 7504, 7505, 7544, 7543
7181, 7505, 7506, 7545, 7544
7182, 7506, 7507, 7546, 7545
7183, 7507, 7508, 7547, 7546
7184, 7508, 7509, 7548, 7547
7185, 7509, 7510, 7549, 7548
7186, 7510, 7511, 7550, 7549
7187, 7511, 7512, 7551, 7550
7188, 7512, 7513, 7552, 7551
7189, 7513, 7514, 7553, 7552
7190, 7514, 7515, 7554, 7553
7191, 7515, 7516, 7555, 7554
7192, 7516, 7517, 7556, 7555
7193, 7517, 7518, 7557, 7556
7194, 7518, 7519, 7558, 7557
7195, 7519, 7520, 7559, 7558
7196, 7520, 7521, 7560, 7559
7197, 7521, 7522, 7561, 7560
7198, 7522, 7523, 7562, 7561
7199, 7523, 7524, 7563, 7562
7200, 7524,  423,  424, 7563
7201,  474, 7525, 7564,  473
7202, 7525, 7526, 7565, 7564
7203, 7526, 7527, 7566, 7565
7204, 7527, 7528, 7567, 7566
7205, 7528, 7529, 7568, 7567
7206, 7529, 7530, 7569, 7568
7207, 7530, 7531, 7570, 7569
7208, 7531, 7532, 7571, 7570
7209, 7532, 7533, 7572, 7571
7210, 7533, 7534, 7573, 7572
7211, 7534, 7535, 7574, 7573
7212, 7535, 7536, 7575, 7574
7213, 7536, 7537, 7576, 7575
7214, 7537, 7538, 7577, 7576
7215, 7538, 7539, 7578, 7577
7216, 7539, 7540, 7579, 7578
7217, 7540, 7541, 7580, 7579
7218, 7541, 7542, 7581, 7580
7219, 7542, 7543, 7582, 7581
7220, 7543, 7544, 7583, 7582
7221, 7544, 7545, 7584, 7583
7222, 7545, 7546, 7585, 7584
7223, 7546, 7547, 7586, 7585
7224, 7547, 7548, 7587, 7586
7225, 7548, 7549, 7588, 7587
7226, 7549, 7550, 7589, 7588
7227, 7550, 7551, 7590, 7589
7228, 7551, 7552, 7591, 7590
7229, 7552, 7553, 7592, 7591
7230, 7553, 7554, 7593, 7592
7231, 7554, 7555, 7594, 7593
7232, 7555, 7556, 7595, 7594
7233, 7556, 7557, 7596, 7595
7234, 7557, 7558, 7597, 7596
7235, 7558, 7559, 7598, 7597
7236, 7559, 7560, 7599, 7598
7237, 7560, 7561, 7600, 7599
7238, 7561, 7562, 7601, 7600
7239, 7562, 7563, 7602, 7601
7240, 7563,  424,  425, 7602
7241,  473, 7564, 7603,  472
7242, 7564, 7565, 7604, 7603
7243, 7565, 7566, 7605, 7604
7244, 7566, 7567, 7606, 7605
7245, 7567, 7568, 7607, 7606
7246, 7568, 7569, 7608, 7607
7247, 7569, 7570, 7609, 7608
7248, 7570, 7571, 7610, 7609
7249, 7571, 7572, 7611, 7610
7250, 7572, 7573, 7612, 7611
7251, 7573, 7574, 7613, 7612
7252, 7574, 7575, 7614, 7613
7253, 7575, 7576, 7615, 7614
7254, 7576, 7577, 7616, 7615
7255, 7577, 7578, 7617, 7616
7256, 7578, 7579, 7618, 7617
7257, 7579, 7580, 7619, 7618
7258, 7580, 7581, 7620, 7619
7259, 7581, 7582, 7621, 7620
7260, 7582, 7583, 7622, 7621
7261, 7583, 7584, 7623, 7622
7262, 7584, 7585, 7624, 7623
7263, 7585, 7586, 7625, 7624
7264, 7586, 7587, 7626, 7625
7265, 7587, 7588, 7627, 7626
7266, 7588, 7589, 7628, 7627
7267, 7589, 7590, 7629, 7628
7268, 7590, 7591, 7630, 7629
7269, 7591, 7592, 7631, 7630
7270, 7592, 7593, 7632, 7631
7271, 7593, 7594, 7633, 7632
7272, 7594, 7595, 7634, 7633
7273, 7595, 7596, 7635, 7634
7274, 7596, 7597, 7636, 7635
7275, 7597, 7598, 7637, 7636
7276, 7598, 7599, 7638, 7637
7277, 7599, 7600, 7639, 7638
7278, 7600, 7601, 7640, 7639
7279, 7601, 7602, 7641, 7640
7280, 7602,  425,  426, 7641
7281,  472, 7603, 7642,  471
7282, 7603, 7604, 7643, 7642
7283, 7604, 7605, 7644, 7643
7284, 7605, 7606, 7645, 7644
7285, 7606, 7607, 7646, 7645
7286, 7607, 7608, 7647, 7646
7287, 7608, 7609, 7648, 7647
7288, 7609, 7610, 7649, 7648
7289, 7610, 7611, 7650, 7649
7290, 7611, 7612, 7651, 7650
7291, 7612, 7613, 7652, 7651
7292, 7613, 7614, 7653, 7652
7293, 7614, 7615, 7654, 7653
7294, 7615, 7616, 7655, 7654
7295, 7616, 7617, 7656, 7655
7296, 7617, 7618, 7657, 7656
7297, 7618, 7619, 7658, 7657
7298, 7619, 7620, 7659, 7658
7299, 7620, 7621, 7660, 7659
7300, 7621, 7622, 7661, 7660
7301, 7622, 7623, 7662, 7661
7302, 7623, 7624, 7663, 7662
7303, 7624, 7625, 7664, 7663
7304, 7625, 7626, 7665, 7664
7305, 7626, 7627, 7666, 7665
7306, 7627, 7628, 7667, 7666
7307, 7628, 7629, 7668, 7667
7308, 7629, 7630, 7669, 7668
7309, 7630, 7631, 7670, 7669
7310, 7631, 7632, 7671, 7670
7311, 7632, 7633, 7672, 7671
7312, 7633, 7634, 7673, 7672
7313, 7634, 7635, 7674, 7673
7314, 7635, 7636, 7675, 7674
7315, 7636, 7637, 7676, 7675
7316, 7637, 7638, 7677, 7676
7317, 7638, 7639, 7678, 7677
7318, 7639, 7640, 7679, 7678
7319, 7640, 7641, 7680, 7679
7320, 7641,  426,  427, 7680
7321,  471, 7642, 7681,  470
7322, 7642, 7643, 7682, 7681
7323, 7643, 7644, 7683, 7682
7324, 7644, 7645, 7684, 7683
7325, 7645, 7646, 7685, 7684
7326, 7646, 7647, 7686, 7685
7327, 7647, 7648, 7687, 7686
7328, 7648, 7649, 7688, 7687
7329, 7649, 7650, 7689, 7688
7330, 7650, 7651, 7690, 7689
7331, 7651, 7652, 7691, 7690
7332, 7652, 7653, 7692, 7691
7333, 7653, 7654, 7693, 7692
7334, 7654, 7655, 7694, 7693
7335, 7655, 7656, 7695, 7694
7336, 7656, 7657, 7696, 7695
7337, 7657, 7658, 7697, 7696
7338, 7658, 7659, 7698, 7697
7339, 7659, 7660, 7699, 7698
7340, 7660, 7661, 7700, 7699
7341, 7661, 7662, 7701, 7700
7342, 7662, 7663, 7702, 7701
7343, 7663, 7664, 7703, 7702
7344, 7664, 7665, 7704, 7703
7345, 7665, 7666, 7705, 7704
7346, 7666, 7667, 7706, 7705
7347, 7667, 7668, 7707, 7706
7348, 7668, 7669, 7708, 7707
7349, 7669, 7670, 7709, 7708
7350, 7670, 7671, 7710, 7709
7351, 7671, 7672, 7711, 7710
7352, 7672, 7673, 7712, 7711
7353, 7673, 7674, 7713, 7712
7354, 7674, 7675, 7714, 7713
7355, 7675, 7676, 7715, 7714
7356, 7676, 7677, 7716, 7715
7357, 7677, 7678, 7717, 7716
7358, 7678, 7679, 7718, 7717
7359, 7679, 7680, 7719, 7718
7360, 7680,  427,  428, 7719
7361,  470, 7681, 7720,  469
7362, 7681, 7682, 7721, 7720
7363, 7682, 7683, 7722, 7721
7364, 7683, 7684, 7723, 7722
7365, 7684, 7685, 7724, 7723
7366, 7685, 7686, 7725, 7724
7367, 7686, 7687, 7726, 7725
7368, 7687, 7688, 7727, 7726
7369, 7688, 7689, 7728, 7727
7370, 7689, 7690, 7729, 7728
7371, 7690, 7691, 7730, 7729
7372, 7691, 7692, 7731, 7730
7373, 7692, 7693, 7732, 7731
7374, 7693, 7694, 7733, 7732
7375, 7694, 7695, 7734, 7733
7376, 7695, 7696, 7735, 7734
7377, 7696, 7697, 7736, 7735
7378, 7697, 7698, 7737, 7736
7379, 7698, 7699, 7738, 7737
7380, 7699, 7700, 7739, 7738
7381, 7700, 7701, 7740, 7739
7382, 7701, 7702, 7741, 7740
7383, 7702, 7703, 7742, 7741
7384, 7703, 7704, 7743, 7742
7385, 7704, 7705, 7744, 7743
7386, 7705, 7706, 7745, 7744
7387, 7706, 7707, 7746, 7745
7388, 7707, 7708, 7747, 7746
7389, 7708, 7709, 7748, 7747
7390, 7709, 7710, 7749, 7748
7391, 7710, 7711, 7750, 7749
7392, 7711, 7712, 7751, 7750
7393, 7712, 7713, 7752, 7751
7394, 7713, 7714, 7753, 7752
7395, 7714, 7715, 7754, 7753
7396, 7715, 7716, 7755, 7754
7397, 7716, 7717, 7756, 7755
7398, 7717, 7718, 7757, 7756
7399, 7718, 7719, 7758, 7757
7400, 7719,  428,  429, 7758
7401,  469, 7720,  468,    6
7402, 7720, 7721,  467,  468
7403, 7721, 7722,  466,  467
7404, 7722, 7723,  465,  466
7405, 7723, 7724,  464,  465
7406, 7724, 7725,  463,  464
7407, 7725, 7726,  462,  463
7408, 7726, 7727,  461,  462
7409, 7727, 7728,  460,  461
7410, 7728, 7729,  459,  460
7411, 7729, 7730,  458,  459
7412, 7730, 7731,  457,  458
7413, 7731, 7732,  456,  457
7414, 7732, 7733,  455,  456
7415, 7733, 7734,  454,  455
7416, 7734, 7735,  453,  454
7417, 7735, 7736,  452,  453
7418, 7736, 7737,  451,  452
7419, 7737, 7738,  450,  451
7420, 7738, 7739,  449,  450
7421, 7739, 7740,  448,  449
7422, 7740, 7741,  447,  448
7423, 7741, 7742,  446,  447
7424, 7742, 7743,  445,  446
7425, 7743, 7744,  444,  445
7426, 7744, 7745,  443,  444
7427, 7745, 7746,  442,  443
7428, 7746, 7747,  441,  442
7429, 7747, 7748,  440,  441
7430, 7748, 7749,  439,  440
7431, 7749, 7750,  438,  439
7432, 7750, 7751,  437,  438
7433, 7751, 7752,  436,  437
7434, 7752, 7753,  435,  436
7435, 7753, 7754,  434,  435
7436, 7754, 7755,  433,  434
7437, 7755, 7756,  432,  433
7438, 7756, 7757,  431,  432
7439, 7757, 7758,  430,  431
7440, 7758,  429,    5,  430
7441,    2,   47, 7759,  582
7442,   47,   46, 7760, 7759
7443,   46,   45, 7761, 7760
7444,   45,   44, 7762, 7761
7445,   44,   43, 7763, 7762
7446,   43,   42, 7764, 7763
7447,   42,   41, 7765, 7764
7448,   41,   40, 7766, 7765
7449,   40,   39, 7767, 7766
7450,   39,   38, 7768, 7767
7451,   38,   37, 7769, 7768
7452,   37,   36, 7770, 7769
7453,   36,   35, 7771, 7770
7454,   35,   34, 7772, 7771
7455,   34,   33, 7773, 7772
7456,   33,   32, 7774, 7773
7457,   32,   31, 7775, 7774
7458,   31,   30, 7776, 7775
7459,   30,   29, 7777, 7776
7460,   29,   28, 7778, 7777
7461,   28,   27, 7779, 7778
7462,   27,   26, 7780, 7779
7463,   26,   25, 7781, 7780
7464,   25,   24, 7782, 7781
7465,   24,   23, 7783, 7782
7466,   23,   22, 7784, 7783
7467,   22,   21, 7785, 7784
7468,   21,   20, 7786, 7785
7469,   20,   19, 7787, 7786
7470,   19,   18, 7788, 7787
7471,   18,   17, 7789, 7788
7472,   17,   16, 7790, 7789
7473,   16,   15, 7791, 7790
7474,   15,   14, 7792, 7791
7475,   14,   13, 7793, 7792
7476,   13,   12, 7794, 7793
7477,   12,   11, 7795, 7794
7478,   11,   10, 7796, 7795
7479,   10,    9, 7797, 7796
7480,    9,    1,  494, 7797
7481,  582, 7759, 7798,  581
7482, 7759, 7760, 7799, 7798
7483, 7760, 7761, 7800, 7799
7484, 7761, 7762, 7801, 7800
7485, 7762, 7763, 7802, 7801
7486, 7763, 7764, 7803, 7802
7487, 7764, 7765, 7804, 7803
7488, 7765, 7766, 7805, 7804
7489, 7766, 7767, 7806, 7805
7490, 7767, 7768, 7807, 7806
7491, 7768, 7769, 7808, 7807
7492, 7769, 7770, 7809, 7808
7493, 7770, 7771, 7810, 7809
7494, 7771, 7772, 7811, 7810
7495, 7772, 7773, 7812, 7811
7496, 7773, 7774, 7813, 7812
7497, 7774, 7775, 7814, 7813
7498, 7775, 7776, 7815, 7814
7499, 7776, 7777, 7816, 7815
7500, 7777, 7778, 7817, 7816
7501, 7778, 7779, 7818, 7817
7502, 7779, 7780, 7819, 7818
7503, 7780, 7781, 7820, 7819
7504, 7781, 7782, 7821, 7820
7505, 7782, 7783, 7822, 7821
7506, 7783, 7784, 7823, 7822
7507, 7784, 7785, 7824, 7823
7508, 7785, 7786, 7825, 7824
7509, 7786, 7787, 7826, 7825
7510, 7787, 7788, 7827, 7826
7511, 7788, 7789, 7828, 7827
7512, 7789, 7790, 7829, 7828
7513, 7790, 7791, 7830, 7829
7514, 7791, 7792, 7831, 7830
7515, 7792, 7793, 7832, 7831
7516, 7793, 7794, 7833, 7832
7517, 7794, 7795, 7834, 7833
7518, 7795, 7796, 7835, 7834
7519, 7796, 7797, 7836, 7835
7520, 7797,  494,  495, 7836
7521,  581, 7798, 7837,  580
7522, 7798, 7799, 7838, 7837
7523, 7799, 7800, 7839, 7838
7524, 7800, 7801, 7840, 7839
7525, 7801, 7802, 7841, 7840
7526, 7802, 7803, 7842, 7841
7527, 7803, 7804, 7843, 7842
7528, 7804, 7805, 7844, 7843
7529, 7805, 7806, 7845, 7844
7530, 7806, 7807, 7846, 7845
7531, 7807, 7808, 7847, 7846
7532, 7808, 7809, 7848, 7847
7533, 7809, 7810, 7849, 7848
7534, 7810, 7811, 7850, 7849
7535, 7811, 7812, 7851, 7850
7536, 7812, 7813, 7852, 7851
7537, 7813, 7814, 7853, 7852
7538, 7814, 7815, 7854, 7853
7539, 7815, 7816, 7855, 7854
7540, 7816, 7817, 7856, 7855
7541, 7817, 7818, 7857, 7856
7542, 7818, 7819, 7858, 7857
7543, 7819, 7820, 7859, 7858
7544, 7820, 7821, 7860, 7859
7545, 7821, 7822, 7861, 7860
7546, 7822, 7823, 7862, 7861
7547, 7823, 7824, 7863, 7862
7548, 7824, 7825, 7864, 7863
7549, 7825, 7826, 7865, 7864
7550, 7826, 7827, 7866, 7865
7551, 7827, 7828, 7867, 7866
7552, 7828, 7829, 7868, 7867
7553, 7829, 7830, 7869, 7868
7554, 7830, 7831, 7870, 7869
7555, 7831, 7832, 7871, 7870
7556, 7832, 7833, 7872, 7871
7557, 7833, 7834, 7873, 7872
7558, 7834, 7835, 7874, 7873
7559, 7835, 7836, 7875, 7874
7560, 7836,  495,  496, 7875
7561,  580, 7837, 7876,  579
7562, 7837, 7838, 7877, 7876
7563, 7838, 7839, 7878, 7877
7564, 7839, 7840, 7879, 7878
7565, 7840, 7841, 7880, 7879
7566, 7841, 7842, 7881, 7880
7567, 7842, 7843, 7882, 7881
7568, 7843, 7844, 7883, 7882
7569, 7844, 7845, 7884, 7883
7570, 7845, 7846, 7885, 7884
7571, 7846, 7847, 7886, 7885
7572, 7847, 7848, 7887, 7886
7573, 7848, 7849, 7888, 7887
7574, 7849, 7850, 7889, 7888
7575, 7850, 7851, 7890, 7889
7576, 7851, 7852, 7891, 7890
7577, 7852, 7853, 7892, 7891
7578, 7853, 7854, 7893, 7892
7579, 7854, 7855, 7894, 7893
7580, 7855, 7856, 7895, 7894
7581, 7856, 7857, 7896, 7895
7582, 7857, 7858, 7897, 7896
7583, 7858, 7859, 7898, 7897
7584, 7859, 7860, 7899, 7898
7585, 7860, 7861, 7900, 7899
7586, 7861, 7862, 7901, 7900
7587, 7862, 7863, 7902, 7901
7588, 7863, 7864, 7903, 7902
7589, 7864, 7865, 7904, 7903
7590, 7865, 7866, 7905, 7904
7591, 7866, 7867, 7906, 7905
7592, 7867, 7868, 7907, 7906
7593, 7868, 7869, 7908, 7907
7594, 7869, 7870, 7909, 7908
7595, 7870, 7871, 7910, 7909
7596, 7871, 7872, 7911, 7910
7597, 7872, 7873, 7912, 7911
7598, 7873, 7874, 7913, 7912
7599, 7874, 7875, 7914, 7913
7600, 7875,  496,  497, 7914
7601,  579, 7876, 7915,  578
7602, 7876, 7877, 7916, 7915
7603, 7877, 7878, 7917, 7916
7604, 7878, 7879, 7918, 7917
7605, 7879, 7880, 7919, 7918
7606, 7880, 7881, 7920, 7919
7607, 7881, 7882, 7921, 7920
7608, 7882, 7883, 7922, 7921
7609, 7883, 7884, 7923, 7922
7610, 7884, 7885, 7924, 7923
7611, 7885, 7886, 7925, 7924
7612, 7886, 7887, 7926, 7925
7613, 7887, 7888, 7927, 7926
7614, 7888, 7889, 7928, 7927
7615, 7889, 7890, 7929, 7928
7616, 7890, 7891, 7930, 7929
7617, 7891, 7892, 7931, 7930
7618, 7892, 7893, 7932, 7931
7619, 7893, 7894, 7933, 7932
7620, 7894, 7895, 7934, 7933
7621, 7895, 7896, 7935, 7934
7622, 7896, 7897, 7936, 7935
7623, 7897, 7898, 7937, 7936
7624, 7898, 7899, 7938, 7937
7625, 7899, 7900, 7939, 7938
7626, 7900, 7901, 7940, 7939
7627, 7901, 7902, 7941, 7940
7628, 7902, 7903, 7942, 7941
7629, 7903, 7904, 7943, 7942
7630, 7904, 7905, 7944, 7943
7631, 7905, 7906, 7945, 7944
7632, 7906, 7907, 7946, 7945
7633, 7907, 7908, 7947, 7946
7634, 7908, 7909, 7948, 7947
7635, 7909, 7910, 7949, 7948
7636, 7910, 7911, 7950, 7949
7637, 7911, 7912, 7951, 7950
7638, 7912, 7913, 7952, 7951
7639, 7913, 7914, 7953, 7952
7640, 7914,  497,  498, 7953
7641,  578, 7915, 7954,  577
7642, 7915, 7916, 7955, 7954
7643, 7916, 7917, 7956, 7955
7644, 7917, 7918, 7957, 7956
7645, 7918, 7919, 7958, 7957
7646, 7919, 7920, 7959, 7958
7647, 7920, 7921, 7960, 7959
7648, 7921, 7922, 7961, 7960
7649, 7922, 7923, 7962, 7961
7650, 7923, 7924, 7963, 7962
7651, 7924, 7925, 7964, 7963
7652, 7925, 7926, 7965, 7964
7653, 7926, 7927, 7966, 7965
7654, 7927, 7928, 7967, 7966
7655, 7928, 7929, 7968, 7967
7656, 7929, 7930, 7969, 7968
7657, 7930, 7931, 7970, 7969
7658, 7931, 7932, 7971, 7970
7659, 7932, 7933, 7972, 7971
7660, 7933, 7934, 7973, 7972
7661, 7934, 7935, 7974, 7973
7662, 7935, 7936, 7975, 7974
7663, 7936, 7937, 7976, 7975
7664, 7937, 7938, 7977, 7976
7665, 7938, 7939, 7978, 7977
7666, 7939, 7940, 7979, 7978
7667, 7940, 7941, 7980, 7979
7668, 7941, 7942, 7981, 7980
7669, 7942, 7943, 7982, 7981
7670, 7943, 7944, 7983, 7982
7671, 7944, 7945, 7984, 7983
7672, 7945, 7946, 7985, 7984
7673, 7946, 7947, 7986, 7985
7674, 7947, 7948, 7987, 7986
7675, 7948, 7949, 7988, 7987
7676, 7949, 7950, 7989, 7988
7677, 7950, 7951, 7990, 7989
7678, 7951, 7952, 7991, 7990
7679, 7952, 7953, 7992, 7991
7680, 7953,  498,  499, 7992
7681,  577, 7954, 7993,  576
7682, 7954, 7955, 7994, 7993
7683, 7955, 7956, 7995, 7994
7684, 7956, 7957, 7996, 7995
7685, 7957, 7958, 7997, 7996
7686, 7958, 7959, 7998, 7997
7687, 7959, 7960, 7999, 7998
7688, 7960, 7961, 8000, 7999
7689, 7961, 7962, 8001, 8000
7690, 7962, 7963, 8002, 8001
7691, 7963, 7964, 8003, 8002
7692, 7964, 7965, 8004, 8003
7693, 7965, 7966, 8005, 8004
7694, 7966, 7967, 8006, 8005
7695, 7967, 7968, 8007, 8006
7696, 7968, 7969, 8008, 8007
7697, 7969, 7970, 8009, 8008
7698, 7970, 7971, 8010, 8009
7699, 7971, 7972, 8011, 8010
7700, 7972, 7973, 8012, 8011
7701, 7973, 7974, 8013, 8012
7702, 7974, 7975, 8014, 8013
7703, 7975, 7976, 8015, 8014
7704, 7976, 7977, 8016, 8015
7705, 7977, 7978, 8017, 8016
7706, 7978, 7979, 8018, 8017
7707, 7979, 7980, 8019, 8018
7708, 7980, 7981, 8020, 8019
7709, 7981, 7982, 8021, 8020
7710, 7982, 7983, 8022, 8021
7711, 7983, 7984, 8023, 8022
7712, 7984, 7985, 8024, 8023
7713, 7985, 7986, 8025, 8024
7714, 7986, 7987, 8026, 8025
7715, 7987, 7988, 8027, 8026
7716, 7988, 7989, 8028, 8027
7717, 7989, 7990, 8029, 8028
7718, 7990, 7991, 8030, 8029
7719, 7991, 7992, 8031, 8030
7720, 7992,  499,  500, 8031
7721,  576, 7993, 8032,  575
7722, 7993, 7994, 8033, 8032
7723, 7994, 7995, 8034, 8033
7724, 7995, 7996, 8035, 8034
7725, 7996, 7997, 8036, 8035
7726, 7997, 7998, 8037, 8036
7727, 7998, 7999, 8038, 8037
7728, 7999, 8000, 8039, 8038
7729, 8000, 8001, 8040, 8039
7730, 8001, 8002, 8041, 8040
7731, 8002, 8003, 8042, 8041
7732, 8003, 8004, 8043, 8042
7733, 8004, 8005, 8044, 8043
7734, 8005, 8006, 8045, 8044
7735, 8006, 8007, 8046, 8045
7736, 8007, 8008, 8047, 8046
7737, 8008, 8009, 8048, 8047
7738, 8009, 8010, 8049, 8048
7739, 8010, 8011, 8050, 8049
7740, 8011, 8012, 8051, 8050
7741, 8012, 8013, 8052, 8051
7742, 8013, 8014, 8053, 8052
7743, 8014, 8015, 8054, 8053
7744, 8015, 8016, 8055, 8054
7745, 8016, 8017, 8056, 8055
7746, 8017, 8018, 8057, 8056
7747, 8018, 8019, 8058, 8057
7748, 8019, 8020, 8059, 8058
7749, 8020, 8021, 8060, 8059
7750, 8021, 8022, 8061, 8060
7751, 8022, 8023, 8062, 8061
7752, 8023, 8024, 8063, 8062
7753, 8024, 8025, 8064, 8063
7754, 8025, 8026, 8065, 8064
7755, 8026, 8027, 8066, 8065
7756, 8027, 8028, 8067, 8066
7757, 8028, 8029, 8068, 8067
7758, 8029, 8030, 8069, 8068
7759, 8030, 8031, 8070, 8069
7760, 8031,  500,  501, 8070
7761,  575, 8032, 8071,  574
7762, 8032, 8033, 8072, 8071
7763, 8033, 8034, 8073, 8072
7764, 8034, 8035, 8074, 8073
7765, 8035, 8036, 8075, 8074
7766, 8036, 8037, 8076, 8075
7767, 8037, 8038, 8077, 8076
7768, 8038, 8039, 8078, 8077
7769, 8039, 8040, 8079, 8078
7770, 8040, 8041, 8080, 8079
7771, 8041, 8042, 8081, 8080
7772, 8042, 8043, 8082, 8081
7773, 8043, 8044, 8083, 8082
7774, 8044, 8045, 8084, 8083
7775, 8045, 8046, 8085, 8084
7776, 8046, 8047, 8086, 8085
7777, 8047, 8048, 8087, 8086
7778, 8048, 8049, 8088, 8087
7779, 8049, 8050, 8089, 8088
7780, 8050, 8051, 8090, 8089
7781, 8051, 8052, 8091, 8090
7782, 8052, 8053, 8092, 8091
7783, 8053, 8054, 8093, 8092
7784, 8054, 8055, 8094, 8093
7785, 8055, 8056, 8095, 8094
7786, 8056, 8057, 8096, 8095
7787, 8057, 8058, 8097, 8096
7788, 8058, 8059, 8098, 8097
7789, 8059, 8060, 8099, 8098
7790, 8060, 8061, 8100, 8099
7791, 8061, 8062, 8101, 8100
7792, 8062, 8063, 8102, 8101
7793, 8063, 8064, 8103, 8102
7794, 8064, 8065, 8104, 8103
7795, 8065, 8066, 8105, 8104
7796, 8066, 8067, 8106, 8105
7797, 8067, 8068, 8107, 8106
7798, 8068, 8069, 8108, 8107
7799, 8069, 8070, 8109, 8108
7800, 8070,  501,  502, 8109
7801,  574, 8071, 8110,  573
7802, 8071, 8072, 8111, 8110
7803, 8072, 8073, 8112, 8111
7804, 8073, 8074, 8113, 8112
7805, 8074, 8075, 8114, 8113
7806, 8075, 8076, 8115, 8114
7807, 8076, 8077, 8116, 8115
7808, 8077, 8078, 8117, 8116
7809, 8078, 8079, 8118, 8117
7810, 8079, 8080, 8119, 8118
7811, 8080, 8081, 8120, 8119
7812, 8081, 8082, 8121, 8120
7813, 8082, 8083, 8122, 8121
7814, 8083, 8084, 8123, 8122
7815, 8084, 8085, 8124, 8123
7816, 8085, 8086, 8125, 8124
7817, 8086, 8087, 8126, 8125
7818, 8087, 8088, 8127, 8126
7819, 8088, 8089, 8128, 8127
7820, 8089, 8090, 8129, 8128
7821, 8090, 8091, 8130, 8129
7822, 8091, 8092, 8131, 8130
7823, 8092, 8093, 8132, 8131
7824, 8093, 8094, 8133, 8132
7825, 8094, 8095, 8134, 8133
7826, 8095, 8096, 8135, 8134
7827, 8096, 8097, 8136, 8135
7828, 8097, 8098, 8137, 8136
7829, 8098, 8099, 8138, 8137
7830, 8099, 8100, 8139, 8138
7831, 8100, 8101, 8140, 8139
7832, 8101, 8102, 8141, 8140
7833, 8102, 8103, 8142, 8141
7834, 8103, 8104, 8143, 8142
7835, 8104, 8105, 8144, 8143
7836, 8105, 8106, 8145, 8144
7837, 8106, 8107, 8146, 8145
7838, 8107, 8108, 8147, 8146
7839, 8108, 8109, 8148, 8147
7840, 8109,  502,  503, 8148
7841,  573, 8110, 8149,  572
7842, 8110, 8111, 8150, 8149
7843, 8111, 8112, 8151, 8150
7844, 8112, 8113, 8152, 8151
7845, 8113, 8114, 8153, 8152
7846, 8114, 8115, 8154, 8153
7847, 8115, 8116, 8155, 8154
7848, 8116, 8117, 8156, 8155
7849, 8117, 8118, 8157, 8156
7850, 8118, 8119, 8158, 8157
7851, 8119, 8120, 8159, 8158
7852, 8120, 8121, 8160, 8159
7853, 8121, 8122, 8161, 8160
7854, 8122, 8123, 8162, 8161
7855, 8123, 8124, 8163, 8162
7856, 8124, 8125, 8164, 8163
7857, 8125, 8126, 8165, 8164
7858, 8126, 8127, 8166, 8165
7859, 8127, 8128, 8167, 8166
7860, 8128, 8129, 8168, 8167
7861, 8129, 8130, 8169, 8168
7862, 8130, 8131, 8170, 8169
7863, 8131, 8132, 8171, 8170
7864, 8132, 8133, 8172, 8171
7865, 8133, 8134, 8173, 8172
7866, 8134, 8135, 8174, 8173
7867, 8135, 8136, 8175, 8174
7868, 8136, 8137, 8176, 8175
7869, 8137, 8138, 8177, 8176
7870, 8138, 8139, 8178, 8177
7871, 8139, 8140, 8179, 8178
7872, 8140, 8141, 8180, 8179
7873, 8141, 8142, 8181, 8180
7874, 8142, 8143, 8182, 8181
7875, 8143, 8144, 8183, 8182
7876, 8144, 8145, 8184, 8183
7877, 8145, 8146, 8185, 8184
7878, 8146, 8147, 8186, 8185
7879, 8147, 8148, 8187, 8186
7880, 8148,  503,  504, 8187
7881,  572, 8149, 8188,  571
7882, 8149, 8150, 8189, 8188
7883, 8150, 8151, 8190, 8189
7884, 8151, 8152, 8191, 8190
7885, 8152, 8153, 8192, 8191
7886, 8153, 8154, 8193, 8192
7887, 8154, 8155, 8194, 8193
7888, 8155, 8156, 8195, 8194
7889, 8156, 8157, 8196, 8195
7890, 8157, 8158, 8197, 8196
7891, 8158, 8159, 8198, 8197
7892, 8159, 8160, 8199, 8198
7893, 8160, 8161, 8200, 8199
7894, 8161, 8162, 8201, 8200
7895, 8162, 8163, 8202, 8201
7896, 8163, 8164, 8203, 8202
7897, 8164, 8165, 8204, 8203
7898, 8165, 8166, 8205, 8204
7899, 8166, 8167, 8206, 8205
7900, 8167, 8168, 8207, 8206
7901, 8168, 8169, 8208, 8207
7902, 8169, 8170, 8209, 8208
7903, 8170, 8171, 8210, 8209
7904, 8171, 8172, 8211, 8210
7905, 8172, 8173, 8212, 8211
7906, 8173, 8174, 8213, 8212
7907, 8174, 8175, 8214, 8213
7908, 8175, 8176, 8215, 8214
7909, 8176, 8177, 8216, 8215
7910, 8177, 8178, 8217, 8216
7911, 8178, 8179, 8218, 8217
7912, 8179, 8180, 8219, 8218
7913, 8180, 8181, 8220, 8219
7914, 8181, 8182, 8221, 8220
7915, 8182, 8183, 8222, 8221
7916, 8183, 8184, 8223, 8222
7917, 8184, 8185, 8224, 8223
7918, 8185, 8186, 8225, 8224
7919, 8186, 8187, 8226, 8225
7920, 8187,  504,  505, 8226
7921,  571, 8188, 8227,  570
7922, 8188, 8189, 8228, 8227
7923, 8189, 8190, 8229, 8228
7924, 8190, 8191, 8230, 8229
7925, 8191, 8192, 8231, 8230
7926, 8192, 8193, 8232, 8231
7927, 8193, 8194, 8233, 8232
7928, 8194, 8195, 8234, 8233
7929, 8195, 8196, 8235, 8234
7930, 8196, 8197, 8236, 8235
7931, 8197, 8198, 8237, 8236
7932, 8198, 8199, 8238, 8237
7933, 8199, 8200, 8239, 8238
7934, 8200, 8201, 8240, 8239
7935, 8201, 8202, 8241, 8240
7936, 8202, 8203, 8242, 8241
7937, 8203, 8204, 8243, 8242
7938, 8204, 8205, 8244, 8243
7939, 8205, 8206, 8245, 8244
7940, 8206, 8207, 8246, 8245
7941, 8207, 8208, 8247, 8246
7942, 8208, 8209, 8248, 8247
7943, 8209, 8210, 8249, 8248
7944, 8210, 8211, 8250, 8249
7945, 8211, 8212, 8251, 8250
7946, 8212, 8213, 8252, 8251
7947, 8213, 8214, 8253, 8252
7948, 8214, 8215, 8254, 8253
7949, 8215, 8216, 8255, 8254
7950, 8216, 8217, 8256, 8255
7951, 8217, 8218, 8257, 8256
7952, 8218, 8219, 8258, 8257
7953, 8219, 8220, 8259, 8258
7954, 8220, 8221, 8260, 8259
7955, 8221, 8222, 8261, 8260
7956, 8222, 8223, 8262, 8261
7957, 8223, 8224, 8263, 8262
7958, 8224, 8225, 8264, 8263
7959, 8225, 8226, 8265, 8264
7960, 8226,  505,  506, 8265
7961,  570, 8227, 8266,  569
7962, 8227, 8228, 8267, 8266
7963, 8228, 8229, 8268, 8267
7964, 8229, 8230, 8269, 8268
7965, 8230, 8231, 8270, 8269
7966, 8231, 8232, 8271, 8270
7967, 8232, 8233, 8272, 8271
7968, 8233, 8234, 8273, 8272
7969, 8234, 8235, 8274, 8273
7970, 8235, 8236, 8275, 8274
7971, 8236, 8237, 8276, 8275
7972, 8237, 8238, 8277, 8276
7973, 8238, 8239, 8278, 8277
7974, 8239, 8240, 8279, 8278
7975, 8240, 8241, 8280, 8279
7976, 8241, 8242, 8281, 8280
7977, 8242, 8243, 8282, 8281
7978, 8243, 8244, 8283, 8282
7979, 8244, 8245, 8284, 8283
7980, 8245, 8246, 8285, 8284
7981, 8246, 8247, 8286, 8285
7982, 8247, 8248, 8287, 8286
7983, 8248, 8249, 8288, 8287
7984, 8249, 8250, 8289, 8288
7985, 8250, 8251, 8290, 8289
7986, 8251, 8252, 8291, 8290
7987, 8252, 8253, 8292, 8291
7988, 8253, 8254, 8293, 8292
7989, 8254, 8255, 8294, 8293
7990, 8255, 8256, 8295, 8294
7991, 8256, 8257, 8296, 8295
7992, 8257, 8258, 8297, 8296
7993, 8258, 8259, 8298, 8297
7994, 8259, 8260, 8299, 8298
7995, 8260, 8261, 8300, 8299
7996, 8261, 8262, 8301, 8300
7997, 8262, 8263, 8302, 8301
7998, 8263, 8264, 8303, 8302
7999, 8264, 8265, 8304, 8303
8000, 8265,  506,  507, 8304
8001,  569, 8266, 8305,  568
8002, 8266, 8267, 8306, 8305
8003, 8267, 8268, 8307, 8306
8004, 8268, 8269, 8308, 8307
8005, 8269, 8270, 8309, 8308
8006, 8270, 8271, 8310, 8309
8007, 8271, 8272, 8311, 8310
8008, 8272, 8273, 8312, 8311
8009, 8273, 8274, 8313, 8312
8010, 8274, 8275, 8314, 8313
8011, 8275, 8276, 8315, 8314
8012, 8276, 8277, 8316, 8315
8013, 8277, 8278, 8317, 8316
8014, 8278, 8279, 8318, 8317
8015, 8279, 8280, 8319, 8318
8016, 8280, 8281, 8320, 8319
8017, 8281, 8282, 8321, 8320
8018, 8282, 8283, 8322, 8321
8019, 8283, 8284, 8323, 8322
8020, 8284, 8285, 8324, 8323
8021, 8285, 8286, 8325, 8324
8022, 8286, 8287, 8326, 8325
8023, 8287, 8288, 8327, 8326
8024, 8288, 8289, 8328, 8327
8025, 8289, 8290, 8329, 8328
8026, 8290, 8291, 8330, 8329
8027, 8291, 8292, 8331, 8330
8028, 8292, 8293, 8332, 8331
8029, 8293, 8294, 8333, 8332
8030, 8294, 8295, 8334, 8333
8031, 8295, 8296, 8335, 8334
8032, 8296, 8297, 8336, 8335
8033, 8297, 8298, 8337, 8336
8034, 8298, 8299, 8338, 8337
8035, 8299, 8300, 8339, 8338
8036, 8300, 8301, 8340, 8339
8037, 8301, 8302, 8341, 8340
8038, 8302, 8303, 8342, 8341
8039, 8303, 8304, 8343, 8342
8040, 8304,  507,  508, 8343
8041,  568, 8305, 8344,  567
8042, 8305, 8306, 8345, 8344
8043, 8306, 8307, 8346, 8345
8044, 8307, 8308, 8347, 8346
8045, 8308, 8309, 8348, 8347
8046, 8309, 8310, 8349, 8348
8047, 8310, 8311, 8350, 8349
8048, 8311, 8312, 8351, 8350
8049, 8312, 8313, 8352, 8351
8050, 8313, 8314, 8353, 8352
8051, 8314, 8315, 8354, 8353
8052, 8315, 8316, 8355, 8354
8053, 8316, 8317, 8356, 8355
8054, 8317, 8318, 8357, 8356
8055, 8318, 8319, 8358, 8357
8056, 8319, 8320, 8359, 8358
8057, 8320, 8321, 8360, 8359
8058, 8321, 8322, 8361, 8360
8059, 8322, 8323, 8362, 8361
8060, 8323, 8324, 8363, 8362
8061, 8324, 8325, 8364, 8363
8062, 8325, 8326, 8365, 8364
8063, 8326, 8327, 8366, 8365
8064, 8327, 8328, 8367, 8366
8065, 8328, 8329, 8368, 8367
8066, 8329, 8330, 8369, 8368
8067, 8330, 8331, 8370, 8369
8068, 8331, 8332, 8371, 8370
8069, 8332, 8333, 8372, 8371
8070, 8333, 8334, 8373, 8372
8071, 8334, 8335, 8374, 8373
8072, 8335, 8336, 8375, 8374
8073, 8336, 8337, 8376, 8375
8074, 8337, 8338, 8377, 8376
8075, 8338, 8339, 8378, 8377
8076, 8339, 8340, 8379, 8378
8077, 8340, 8341, 8380, 8379
8078, 8341, 8342, 8381, 8380
8079, 8342, 8343, 8382, 8381
8080, 8343,  508,  509, 8382
8081,  567, 8344, 8383,  566
8082, 8344, 8345, 8384, 8383
8083, 8345, 8346, 8385, 8384
8084, 8346, 8347, 8386, 8385
8085, 8347, 8348, 8387, 8386
8086, 8348, 8349, 8388, 8387
8087, 8349, 8350, 8389, 8388
8088, 8350, 8351, 8390, 8389
8089, 8351, 8352, 8391, 8390
8090, 8352, 8353, 8392, 8391
8091, 8353, 8354, 8393, 8392
8092, 8354, 8355, 8394, 8393
8093, 8355, 8356, 8395, 8394
8094, 8356, 8357, 8396, 8395
8095, 8357, 8358, 8397, 8396
8096, 8358, 8359, 8398, 8397
8097, 8359, 8360, 8399, 8398
8098, 8360, 8361, 8400, 8399
8099, 8361, 8362, 8401, 8400
8100, 8362, 8363, 8402, 8401
8101, 8363, 8364, 8403, 8402
8102, 8364, 8365, 8404, 8403
8103, 8365, 8366, 8405, 8404
8104, 8366, 8367, 8406, 8405
8105, 8367, 8368, 8407, 8406
8106, 8368, 8369, 8408, 8407
8107, 8369, 8370, 8409, 8408
8108, 8370, 8371, 8410, 8409
8109, 8371, 8372, 8411, 8410
8110, 8372, 8373, 8412, 8411
8111, 8373, 8374, 8413, 8412
8112, 8374, 8375, 8414, 8413
8113, 8375, 8376, 8415, 8414
8114, 8376, 8377, 8416, 8415
8115, 8377, 8378, 8417, 8416
8116, 8378, 8379, 8418, 8417
8117, 8379, 8380, 8419, 8418
8118, 8380, 8381, 8420, 8419
8119, 8381, 8382, 8421, 8420
8120, 8382,  509,  510, 8421
8121,  566, 8383, 8422,  565
8122, 8383, 8384, 8423, 8422
8123, 8384, 8385, 8424, 8423
8124, 8385, 8386, 8425, 8424
8125, 8386, 8387, 8426, 8425
8126, 8387, 8388, 8427, 8426
8127, 8388, 8389, 8428, 8427
8128, 8389, 8390, 8429, 8428
8129, 8390, 8391, 8430, 8429
8130, 8391, 8392, 8431, 8430
8131, 8392, 8393, 8432, 8431
8132, 8393, 8394, 8433, 8432
8133, 8394, 8395, 8434, 8433
8134, 8395, 8396, 8435, 8434
8135, 8396, 8397, 8436, 8435
8136, 8397, 8398, 8437, 8436
8137, 8398, 8399, 8438, 8437
8138, 8399, 8400, 8439, 8438
8139, 8400, 8401, 8440, 8439
8140, 8401, 8402, 8441, 8440
8141, 8402, 8403, 8442, 8441
8142, 8403, 8404, 8443, 8442
8143, 8404, 8405, 8444, 8443
8144, 8405, 8406, 8445, 8444
8145, 8406, 8407, 8446, 8445
8146, 8407, 8408, 8447, 8446
8147, 8408, 8409, 8448, 8447
8148, 8409, 8410, 8449, 8448
8149, 8410, 8411, 8450, 8449
8150, 8411, 8412, 8451, 8450
8151, 8412, 8413, 8452, 8451
8152, 8413, 8414, 8453, 8452
8153, 8414, 8415, 8454, 8453
8154, 8415, 8416, 8455, 8454
8155, 8416, 8417, 8456, 8455
8156, 8417, 8418, 8457, 8456
8157, 8418, 8419, 8458, 8457
8158, 8419, 8420, 8459, 8458
8159, 8420, 8421, 8460, 8459
8160, 8421,  510,  511, 8460
8161,  565, 8422, 8461,  564
8162, 8422, 8423, 8462, 8461
8163, 8423, 8424, 8463, 8462
8164, 8424, 8425, 8464, 8463
8165, 8425, 8426, 8465, 8464
8166, 8426, 8427, 8466, 8465
8167, 8427, 8428, 8467, 8466
8168, 8428, 8429, 8468, 8467
8169, 8429, 8430, 8469, 8468
8170, 8430, 8431, 8470, 8469
8171, 8431, 8432, 8471, 8470
8172, 8432, 8433, 8472, 8471
8173, 8433, 8434, 8473, 8472
8174, 8434, 8435, 8474, 8473
8175, 8435, 8436, 8475, 8474
8176, 8436, 8437, 8476, 8475
8177, 8437, 8438, 8477, 8476
8178, 8438, 8439, 8478, 8477
8179, 8439, 8440, 8479, 8478
8180, 8440, 8441, 8480, 8479
8181, 8441, 8442, 8481, 8480
8182, 8442, 8443, 8482, 8481
8183, 8443, 8444, 8483, 8482
8184, 8444, 8445, 8484, 8483
8185, 8445, 8446, 8485, 8484
8186, 8446, 8447, 8486, 8485
8187, 8447, 8448, 8487, 8486
8188, 8448, 8449, 8488, 8487
8189, 8449, 8450, 8489, 8488
8190, 8450, 8451, 8490, 8489
8191, 8451, 8452, 8491, 8490
8192, 8452, 8453, 8492, 8491
8193, 8453, 8454, 8493, 8492
8194, 8454, 8455, 8494, 8493
8195, 8455, 8456, 8495, 8494
8196, 8456, 8457, 8496, 8495
8197, 8457, 8458, 8497, 8496
8198, 8458, 8459, 8498, 8497
8199, 8459, 8460, 8499, 8498
8200, 8460,  511,  512, 8499
8201,  564, 8461, 8500,  563
8202, 8461, 8462, 8501, 8500
8203, 8462, 8463, 8502, 8501
8204, 8463, 8464, 8503, 8502
8205, 8464, 8465, 8504, 8503
8206, 8465, 8466, 8505, 8504
8207, 8466, 8467, 8506, 8505
8208, 8467, 8468, 8507, 8506
8209, 8468, 8469, 8508, 8507
8210, 8469, 8470, 8509, 8508
8211, 8470, 8471, 8510, 8509
8212, 8471, 8472, 8511, 8510
8213, 8472, 8473, 8512, 8511
8214, 8473, 8474, 8513, 8512
8215, 8474, 8475, 8514, 8513
8216, 8475, 8476, 8515, 8514
8217, 8476, 8477, 8516, 8515
8218, 8477, 8478, 8517, 8516
8219, 8478, 8479, 8518, 8517
8220, 8479, 8480, 8519, 8518
8221, 8480, 8481, 8520, 8519
8222, 8481, 8482, 8521, 8520
8223, 8482, 8483, 8522, 8521
8224, 8483, 8484, 8523, 8522
8225, 8484, 8485, 8524, 8523
8226, 8485, 8486, 8525, 8524
8227, 8486, 8487, 8526, 8525
8228, 8487, 8488, 8527, 8526
8229, 8488, 8489, 8528, 8527
8230, 8489, 8490, 8529, 8528
8231, 8490, 8491, 8530, 8529
8232, 8491, 8492, 8531, 8530
8233, 8492, 8493, 8532, 8531
8234, 8493, 8494, 8533, 8532
8235, 8494, 8495, 8534, 8533
8236, 8495, 8496, 8535, 8534
8237, 8496, 8497, 8536, 8535
8238, 8497, 8498, 8537, 8536
8239, 8498, 8499, 8538, 8537
8240, 8499,  512,  513, 8538
8241,  563, 8500, 8539,  562
8242, 8500, 8501, 8540, 8539
8243, 8501, 8502, 8541, 8540
8244, 8502, 8503, 8542, 8541
8245, 8503, 8504, 8543, 8542
8246, 8504, 8505, 8544, 8543
8247, 8505, 8506, 8545, 8544
8248, 8506, 8507, 8546, 8545
8249, 8507, 8508, 8547, 8546
8250, 8508, 8509, 8548, 8547
8251, 8509, 8510, 8549, 8548
8252, 8510, 8511, 8550, 8549
8253, 8511, 8512, 8551, 8550
8254, 8512, 8513, 8552, 8551
8255, 8513, 8514, 8553, 8552
8256, 8514, 8515, 8554, 8553
8257, 8515, 8516, 8555, 8554
8258, 8516, 8517, 8556, 8555
8259, 8517, 8518, 8557, 8556
8260, 8518, 8519, 8558, 8557
8261, 8519, 8520, 8559, 8558
8262, 8520, 8521, 8560, 8559
8263, 8521, 8522, 8561, 8560
8264, 8522, 8523, 8562, 8561
8265, 8523, 8524, 8563, 8562
8266, 8524, 8525, 8564, 8563
8267, 8525, 8526, 8565, 8564
8268, 8526, 8527, 8566, 8565
8269, 8527, 8528, 8567, 8566
8270, 8528, 8529, 8568, 8567
8271, 8529, 8530, 8569, 8568
8272, 8530, 8531, 8570, 8569
8273, 8531, 8532, 8571, 8570
8274, 8532, 8533, 8572, 8571
8275, 8533, 8534, 8573, 8572
8276, 8534, 8535, 8574, 8573
8277, 8535, 8536, 8575, 8574
8278, 8536, 8537, 8576, 8575
8279, 8537, 8538, 8577, 8576
8280, 8538,  513,  514, 8577
8281,  562, 8539, 8578,  561
8282, 8539, 8540, 8579, 8578
8283, 8540, 8541, 8580, 8579
8284, 8541, 8542, 8581, 8580
8285, 8542, 8543, 8582, 8581
8286, 8543, 8544, 8583, 8582
8287, 8544, 8545, 8584, 8583
8288, 8545, 8546, 8585, 8584
8289, 8546, 8547, 8586, 8585
8290, 8547, 8548, 8587, 8586
8291, 8548, 8549, 8588, 8587
8292, 8549, 8550, 8589, 8588
8293, 8550, 8551, 8590, 8589
8294, 8551, 8552, 8591, 8590
8295, 8552, 8553, 8592, 8591
8296, 8553, 8554, 8593, 8592
8297, 8554, 8555, 8594, 8593
8298, 8555, 8556, 8595, 8594
8299, 8556, 8557, 8596, 8595
8300, 8557, 8558, 8597, 8596
8301, 8558, 8559, 8598, 8597
8302, 8559, 8560, 8599, 8598
8303, 8560, 8561, 8600, 8599
8304, 8561, 8562, 8601, 8600
8305, 8562, 8563, 8602, 8601
8306, 8563, 8564, 8603, 8602
8307, 8564, 8565, 8604, 8603
8308, 8565, 8566, 8605, 8604
8309, 8566, 8567, 8606, 8605
8310, 8567, 8568, 8607, 8606
8311, 8568, 8569, 8608, 8607
8312, 8569, 8570, 8609, 8608
8313, 8570, 8571, 8610, 8609
8314, 8571, 8572, 8611, 8610
8315, 8572, 8573, 8612, 8611
8316, 8573, 8574, 8613, 8612
8317, 8574, 8575, 8614, 8613
8318, 8575, 8576, 8615, 8614
8319, 8576, 8577, 8616, 8615
8320, 8577,  514,  515, 8616
8321,  561, 8578, 8617,  560
8322, 8578, 8579, 8618, 8617
8323, 8579, 8580, 8619, 8618
8324, 8580, 8581, 8620, 8619
8325, 8581, 8582, 8621, 8620
8326, 8582, 8583, 8622, 8621
8327, 8583, 8584, 8623, 8622
8328, 8584, 8585, 8624, 8623
8329, 8585, 8586, 8625, 8624
8330, 8586, 8587, 8626, 8625
8331, 8587, 8588, 8627, 8626
8332, 8588, 8589, 8628, 8627
8333, 8589, 8590, 8629, 8628
8334, 8590, 8591, 8630, 8629
8335, 8591, 8592, 8631, 8630
8336, 8592, 8593, 8632, 8631
8337, 8593, 8594, 8633, 8632
8338, 8594, 8595, 8634, 8633
8339, 8595, 8596, 8635, 8634
8340, 8596, 8597, 8636, 8635
8341, 8597, 8598, 8637, 8636
8342, 8598, 8599, 8638, 8637
8343, 8599, 8600, 8639, 8638
8344, 8600, 8601, 8640, 8639
8345, 8601, 8602, 8641, 8640
8346, 8602, 8603, 8642, 8641
8347, 8603, 8604, 8643, 8642
8348, 8604, 8605, 8644, 8643
8349, 8605, 8606, 8645, 8644
8350, 8606, 8607, 8646, 8645
8351, 8607, 8608, 8647, 8646
8352, 8608, 8609, 8648, 8647
8353, 8609, 8610, 8649, 8648
8354, 8610, 8611, 8650, 8649
8355, 8611, 8612, 8651, 8650
8356, 8612, 8613, 8652, 8651
8357, 8613, 8614, 8653, 8652
8358, 8614, 8615, 8654, 8653
8359, 8615, 8616, 8655, 8654
8360, 8616,  515,  516, 8655
8361,  560, 8617, 8656,  559
8362, 8617, 8618, 8657, 8656
8363, 8618, 8619, 8658, 8657
8364, 8619, 8620, 8659, 8658
8365, 8620, 8621, 8660, 8659
8366, 8621, 8622, 8661, 8660
8367, 8622, 8623, 8662, 8661
8368, 8623, 8624, 8663, 8662
8369, 8624, 8625, 8664, 8663
8370, 8625, 8626, 8665, 8664
8371, 8626, 8627, 8666, 8665
8372, 8627, 8628, 8667, 8666
8373, 8628, 8629, 8668, 8667
8374, 8629, 8630, 8669, 8668
8375, 8630, 8631, 8670, 8669
8376, 8631, 8632, 8671, 8670
8377, 8632, 8633, 8672, 8671
8378, 8633, 8634, 8673, 8672
8379, 8634, 8635, 8674, 8673
8380, 8635, 8636, 8675, 8674
8381, 8636, 8637, 8676, 8675
8382, 8637, 8638, 8677, 8676
8383, 8638, 8639, 8678, 8677
8384, 8639, 8640, 8679, 8678
8385, 8640, 8641, 8680, 8679
8386, 8641, 8642, 8681, 8680
8387, 8642, 8643, 8682, 8681
8388, 8643, 8644, 8683, 8682
8389, 8644, 8645, 8684, 8683
8390, 8645, 8646, 8685, 8684
8391, 8646, 8647, 8686, 8685
8392, 8647, 8648, 8687, 8686
8393, 8648, 8649, 8688, 8687
8394, 8649, 8650, 8689, 8688
8395, 8650, 8651, 8690, 8689
8396, 8651, 8652, 8691, 8690
8397, 8652, 8653, 8692, 8691
8398, 8653, 8654, 8693, 8692
8399, 8654, 8655, 8694, 8693
8400, 8655,  516,  517, 8694
8401,  559, 8656, 8695,  558
8402, 8656, 8657, 8696, 8695
8403, 8657, 8658, 8697, 8696
8404, 8658, 8659, 8698, 8697
8405, 8659, 8660, 8699, 8698
8406, 8660, 8661, 8700, 8699
8407, 8661, 8662, 8701, 8700
8408, 8662, 8663, 8702, 8701
8409, 8663, 8664, 8703, 8702
8410, 8664, 8665, 8704, 8703
8411, 8665, 8666, 8705, 8704
8412, 8666, 8667, 8706, 8705
8413, 8667, 8668, 8707, 8706
8414, 8668, 8669, 8708, 8707
8415, 8669, 8670, 8709, 8708
8416, 8670, 8671, 8710, 8709
8417, 8671, 8672, 8711, 8710
8418, 8672, 8673, 8712, 8711
8419, 8673, 8674, 8713, 8712
8420, 8674, 8675, 8714, 8713
8421, 8675, 8676, 8715, 8714
8422, 8676, 8677, 8716, 8715
8423, 8677, 8678, 8717, 8716
8424, 8678, 8679, 8718, 8717
8425, 8679, 8680, 8719, 8718
8426, 8680, 8681, 8720, 8719
8427, 8681, 8682, 8721, 8720
8428, 8682, 8683, 8722, 8721
8429, 8683, 8684, 8723, 8722
8430, 8684, 8685, 8724, 8723
8431, 8685, 8686, 8725, 8724
8432, 8686, 8687, 8726, 8725
8433, 8687, 8688, 8727, 8726
8434, 8688, 8689, 8728, 8727
8435, 8689, 8690, 8729, 8728
8436, 8690, 8691, 8730, 8729
8437, 8691, 8692, 8731, 8730
8438, 8692, 8693, 8732, 8731
8439, 8693, 8694, 8733, 8732
8440, 8694,  517,  518, 8733
8441,  558, 8695,  557,    8
8442, 8695, 8696,  556,  557
8443, 8696, 8697,  555,  556
8444, 8697, 8698,  554,  555
8445, 8698, 8699,  553,  554
8446, 8699, 8700,  552,  553
8447, 8700, 8701,  551,  552
8448, 8701, 8702,  550,  551
8449, 8702, 8703,  549,  550
8450, 8703, 8704,  548,  549
8451, 8704, 8705,  547,  548
8452, 8705, 8706,  546,  547
8453, 8706, 8707,  545,  546
8454, 8707, 8708,  544,  545
8455, 8708, 8709,  543,  544
8456, 8709, 8710,  542,  543
8457, 8710, 8711,  541,  542
8458, 8711, 8712,  540,  541
8459, 8712, 8713,  539,  540
8460, 8713, 8714,  538,  539
8461, 8714, 8715,  537,  538
8462, 8715, 8716,  536,  537
8463, 8716, 8717,  535,  536
8464, 8717, 8718,  534,  535
8465, 8718, 8719,  533,  534
8466, 8719, 8720,  532,  533
8467, 8720, 8721,  531,  532
8468, 8721, 8722,  530,  531
8469, 8722, 8723,  529,  530
8470, 8723, 8724,  528,  529
8471, 8724, 8725,  527,  528
8472, 8725, 8726,  526,  527
8473, 8726, 8727,  525,  526
8474, 8727, 8728,  524,  525
8475, 8728, 8729,  523,  524
8476, 8729, 8730,  522,  523
8477, 8730, 8731,  521,  522
8478, 8731, 8732,  520,  521
8479, 8732, 8733,  519,  520
8480, 8733,  518,    7,  519
*Nset, nset=WaferAll, generate
    1,  8733,     1
*Elset, elset=WaferAll, generate
    1,  8480,     1
** Section: WaferSec
*Solid Section, elset=WaferAll, controls=EC-1, material=M_4H_SiC
1.,
*End Part
**  
**
** ASSEMBLY
**
*Assembly, name=Assembly
**  
*Instance, name=Wafer-1, part=Wafer
*End Instance
**  
*Instance, name=Blade-1, part=Blade
       4e-05,     0.000206,           0.
*End Instance
**  
*Nset, nset=_PickedSet6, internal, instance=Wafer-1
   1,   4, 246, 247, 248, 249, 250, 251, 252, 253, 254, 255, 256, 257, 258, 259
 260, 261, 262, 263, 264, 265, 266, 267, 268, 269, 270, 271, 272, 273, 274, 275
 276, 277, 278, 279, 280, 281, 282, 283, 284, 285, 286, 287, 288, 289, 290, 291
 292, 293, 294, 295, 296, 297, 298, 299, 300, 301, 302, 303, 304, 305, 306, 307
 308, 309, 310, 311, 312, 313, 314, 315, 316, 317, 318, 319, 320, 321, 322, 323
 324, 325, 326, 327, 328, 329, 330, 331, 332, 333, 334, 335, 336, 337, 338, 339
 340, 341, 342, 343, 344, 345, 346, 347, 348, 349, 350, 351, 352, 353, 354, 355
 356, 357, 358, 359, 360, 361, 362, 363, 364, 365, 366, 367, 368, 369, 370, 371
 372, 373, 374, 375, 376, 377, 378, 379, 380, 381, 382, 383, 384, 385, 386, 387
 388, 389, 390, 391, 392, 393, 394, 395, 396, 397, 398, 399, 400, 401, 402, 403
 404,
*Elset, elset=_PickedSet6, internal, instance=Wafer-1, generate
    1,  6361,    40
*Nset, nset=_PickedSet7, internal, instance=Wafer-1
   5,   6, 430, 431, 432, 433, 434, 435, 436, 437, 438, 439, 440, 441, 442, 443
 444, 445, 446, 447, 448, 449, 450, 451, 452, 453, 454, 455, 456, 457, 458, 459
 460, 461, 462, 463, 464, 465, 466, 467, 468
*Elset, elset=_PickedSet7, internal, instance=Wafer-1, generate
 7401,  7440,     1
*Nset, nset=_PickedSet8, internal, instance=Wafer-1
   7,   8, 519, 520, 521, 522, 523, 524, 525, 526, 527, 528, 529, 530, 531, 532
 533, 534, 535, 536, 537, 538, 539, 540, 541, 542, 543, 544, 545, 546, 547, 548
 549, 550, 551, 552, 553, 554, 555, 556, 557
*Elset, elset=_PickedSet8, internal, instance=Wafer-1, generate
 8441,  8480,     1
*Nset, nset=_PickedSet9, internal, instance=Blade-1
 33,
*Nset, nset=_PickedSet10, internal, instance=Blade-1
 33,
*Nset, nset=_PickedSet13, internal, instance=Blade-1
 33,
*Elset, elset=_BladeSurf_SPOS, internal, instance=Blade-1, generate
  1,  31,   1
*Surface, type=ELEMENT, name=BladeSurf
_BladeSurf_SPOS, SNEG
*Elset, elset=_WaferTop_S2, internal, instance=Wafer-1, generate
   40,  6400,    40
*Surface, type=ELEMENT, name=WaferTop
_WaferTop_S2, S2
*Rigid Body, ref node=Blade-1.Blade-RefPt_, elset=Blade-1.Blade
*End Assembly
** 
** ELEMENT CONTROLS
** 
*Section Controls, name=EC-1, DISTORTION CONTROL=YES, hourglass=ENHANCED
1., 1., 1.
** 
** MATERIALS
** 
*Material, name=M_4H_SiC
*Density
3210.,
*Drucker Prager
 68.8,1.,0.
*Drucker Prager Hardening, type=SHEAR
 1e+09,0.
*Elastic
 4.48e+11, 0.21
** 
** INTERACTION PROPERTIES
** 
*Surface Interaction, name=FricContact
*Friction
 0.3,
*Surface Behavior, pressure-overclosure=HARD
** 
** BOUNDARY CONDITIONS
** 
** Name: BladeRot Type: Displacement/Rotation
*Boundary
_PickedSet9, 6, 6
** Name: WaferBottom Type: Symmetry/Antisymmetry/Encastre
*Boundary
_PickedSet6, ENCASTRE
** Name: WaferLeft Type: Displacement/Rotation
*Boundary
_PickedSet7, 1, 1
** Name: WaferRight Type: Displacement/Rotation
*Boundary
_PickedSet8, 1, 1
** ----------------------------------------------------------------
** 
** STEP: Plunge
** 
*Step, name=Plunge, nlgeom=YES
*Dynamic, Explicit
, 4e-05
*Bulk Viscosity
0.06, 1.2
** Mass Scaling: Semi-Automatic
**               Whole Model
*Fixed Mass Scaling, dt=1.00e-08, type=BELOW MIN
** 
** BOUNDARY CONDITIONS
** 
** Name: BladeMotion Type: Velocity/Angular velocity
*Boundary, type=VELOCITY
_PickedSet10, 1, 1
_PickedSet10, 2, 2, -0.5
** 
** INTERACTIONS
** 
** Interaction: BladeCut
*Contact Pair, interaction=FricContact, mechanical constraint=PENALTY, cpset=BladeCut
BladeSurf, WaferTop
** 
** OUTPUT REQUESTS
** 
*Restart, write, number interval=1, time marks=NO
** 
** FIELD OUTPUT: F-Output-1
** 
*Output, field, time interval=1.68e-05
*Node Output
U, 
*Element Output, directions=YES
ENER, PEEQ, S, SDV, STATUS
** 
** HISTORY OUTPUT: H-Output-1
** 
*Output, history, variable=PRESELECT
** 
** HISTORY OUTPUT: BladeForce
** 
*Output, history, time interval=1.33333e-07
*Node Output, nset=_PickedSet13
RF1, RF2, U1, U2
*End Step
** ----------------------------------------------------------------
** 
** STEP: Feed
** 
*Step, name=Feed, nlgeom=YES
*Dynamic, Explicit
, 0.0008
*Bulk Viscosity
0.06, 1.2
** Mass Scaling: Semi-Automatic
**               Whole Model
*Fixed Mass Scaling, dt=1.00e-08, type=BELOW MIN
** 
** BOUNDARY CONDITIONS
** 
** Name: BladeMotion Type: Velocity/Angular velocity
*Boundary, type=VELOCITY
_PickedSet10, 1, 1, 0.5
_PickedSet10, 2, 2
** 
** OUTPUT REQUESTS
** 
*Restart, write, number interval=1, time marks=NO
** 
** FIELD OUTPUT: F-Output-1
** 
*Output, field, time interval=1.68e-05
*Node Output
U, 
*Element Output, directions=YES
ENER, PEEQ, S, SDV, STATUS
** 
** HISTORY OUTPUT: H-Output-1
** 
*Output, history, variable=PRESELECT
** 
** HISTORY OUTPUT: BladeForce
** 
*Output, history, time interval=2.66667e-06
*Node Output, nset=_PickedSet13
RF1, RF2, U1, U2
*End Step
