*Heading
** Job name: dicing_4HSiC_d020_bw30 Model name: dicing_4HSiC_d020_bw30
** Generated by: Abaqus/CAE 2024
*Preprint, echo=NO, model=NO, history=NO, contact=NO
**
** PARTS
**
*Part, name=Blade
*Node
      1, 1.49999996e-05,           0.
      2, 1.04999999e-05, -4.50000016e-06
      3, -1.04999999e-05, -4.50000016e-06
      4, -1.49999996e-05,           0.
      5, 1.38750001e-05, -1.12500004e-06
      6, 1.27499998e-05, -2.25000008e-06
      7, 1.16250003e-05, -3.37500001e-06
      8, 9.00000032e-06, -4.50000016e-06
      9, 7.49999981e-06, -4.50000016e-06
     10, 6.00000021e-06, -4.50000016e-06
     11, 4.50000016e-06, -4.50000016e-06
     12, 3.00000011e-06, -4.50000016e-06
     13, 1.50000005e-06, -4.50000016e-06
     14,           0., -4.50000016e-06
     15, -1.50000005e-06, -4.50000016e-06
     16, -3.00000011e-06, -4.50000016e-06
     17, -4.50000016e-06, -4.50000016e-06
     18, -6.00000021e-06, -4.50000016e-06
     19, -7.49999981e-06, -4.50000016e-06
     20, -9.00000032e-06, -4.50000016e-06
     21, -1.16250003e-05, -3.37500001e-06
     22, -1.27499998e-05, -2.25000008e-06
     23, -1.38750001e-05, -1.12500004e-06
*Element, type=R2D2
1, 1, 5
2, 5, 6
3, 6, 7
4, 7, 2
 5,  2,  8
 6,  8,  9
 7,  9, 10
 8, 10, 11
 9, 11, 12
10, 12, 13
11, 13, 14
12, 14, 15
13, 15, 16
14, 16, 17
15, 17, 18
16, 18, 19
17, 19, 20
18, 20,  3
19,  3, 21
20, 21, 22
21, 22, 23
22, 23,  4
*Node
     24,           0.,           0.,           0.
*Nset, nset=Blade-RefPt_, internal
24, 
*Elset, elset=Blade, generate
  1,  22,   1
*End Part
**  
*Part, name=Wafer
*Node
      1, 0.000339999999,           0.
      2, 0.000339999999, 0.000199999995
      3, 0.000159999996, 0.000199999995
      4, 0.000159999996,           0.
      5,           0., 0.000199999995
      6,           0.,           0.
      7, 0.000500000024,           0.
      8, 0.000500000024, 0.000199999995
      9, 0.000339999999, 4.99999987e-06
     10, 0.000339999999, 9.99999975e-06
     11, 0.000339999999, 1.49999996e-05
     12, 0.000339999999, 1.99999995e-05
     13, 0.000339999999, 2.49999994e-05
     14, 0.000339999999, 2.99999992e-05
     15, 0.000339999999, 3.50000009e-05
     16, 0.000339999999, 3.9999999e-05
     17, 0.000339999999, 4.50000007e-05
     18, 0.000339999999, 4.99999987e-05
     19, 0.000339999999, 5.50000004e-05
     20, 0.000339999999, 5.99999985e-05
     21, 0.000339999999, 6.50000002e-05
     22, 0.000339999999, 7.00000019e-05
     23, 0.000339999999, 7.50000036e-05
     24, 0.000339999999, 7.9999998e-05
     25, 0.000339999999, 8.49999997e-05
     26, 0.000339999999, 9.00000014e-05
     27, 0.000339999999, 9.50000031e-05
     28, 0.000339999999, 9.99999975e-05
     29, 0.000339999999, 0.000104999999
     30, 0.000339999999, 0.000110000001
     31, 0.000339999999, 0.000115000003
     32, 0.000339999999, 0.000119999997
     33, 0.000339999999, 0.000125000006
     34, 0.000339999999,      0.00013
     35, 0.000339999999, 0.000134999995
     36, 0.000339999999, 0.000140000004
     37, 0.000339999999, 0.000144999998
     38, 0.000339999999, 0.000150000007
     39, 0.000339999999, 0.000155000002
     40, 0.000339999999, 0.000159999996
     41, 0.000339999999, 0.000165000005
     42, 0.000339999999, 0.000169999999
     43, 0.000339999999, 0.000174999994
     44, 0.000339999999, 0.000180000003
     45, 0.000339999999, 0.000184999997
     46, 0.000339999999, 0.000190000006
     47, 0.000339999999, 0.000195000001
     48, 0.000338499987, 0.000199999995
     49, 0.000337000005, 0.000199999995
     50, 0.000335499994, 0.000199999995
     51, 0.000334000011, 0.000199999995
     52,    0.0003325, 0.000199999995
     53, 0.000330999988, 0.000199999995
     54, 0.000329500006, 0.000199999995
     55, 0.000327999995, 0.000199999995
     56, 0.000326500012, 0.000199999995
     57, 0.000325000001, 0.000199999995
     58, 0.000323499989, 0.000199999995
     59, 0.000322000007, 0.000199999995
     60, 0.000320499996, 0.000199999995
     61, 0.000319000013, 0.000199999995
     62, 0.000317500002, 0.000199999995
     63, 0.000315999991, 0.000199999995
     64, 0.000314500008, 0.000199999995
     65, 0.000312999997, 0.000199999995
     66, 0.000311500015, 0.000199999995
     67, 0.000310000003, 0.000199999995
     68, 0.000308499992, 0.000199999995
     69, 0.000307000009, 0.000199999995
     70, 0.000305499998, 0.000199999995
     71, 0.000303999986, 0.000199999995
     72, 0.000302500004, 0.000199999995
     73, 0.000300999993, 0.000199999995
     74, 0.00029950001, 0.000199999995
     75, 0.000297999999, 0.000199999995
     76, 0.000296499988, 0.000199999995
     77, 0.000295000005, 0.000199999995
     78, 0.000293499994, 0.000199999995
     79, 0.000292000012, 0.000199999995
     80,    0.0002905, 0.000199999995
     81, 0.000288999989, 0.000199999995
     82, 0.000287500006, 0.000199999995
     83, 0.000285999995, 0.000199999995
     84, 0.000284500013, 0.000199999995
     85, 0.000283000001, 0.000199999995
     86, 0.00028149999, 0.000199999995
     87, 0.000280000007, 0.000199999995
     88, 0.000278499996, 0.000199999995
     89, 0.000277000014, 0.000199999995
     90, 0.000275500002, 0.000199999995
     91, 0.000273999991, 0.000199999995
     92, 0.000272500009, 0.000199999995
     93, 0.000270999997, 0.000199999995
     94, 0.000269499986, 0.000199999995
     95, 0.000268000003, 0.000199999995
     96, 0.000266499992, 0.000199999995
     97, 0.00026500001, 0.000199999995
     98, 0.000263499998, 0.000199999995
     99, 0.000261999987, 0.000199999995
    100, 0.000260500005, 0.000199999995
    101, 0.000258999993, 0.000199999995
    102, 0.000257500011, 0.000199999995
    103, 0.000255999999, 0.000199999995
    104, 0.000254499988, 0.000199999995
    105, 0.000253000006, 0.000199999995
    106, 0.000251499994, 0.000199999995
    107, 0.000250000012, 0.000199999995
    108,    0.0002485, 0.000199999995
    109, 0.000246999989, 0.000199999995
    110, 0.000245500007, 0.000199999995
    111, 0.000243999995, 0.000199999995
    112, 0.000242499998, 0.000199999995
    113, 0.000241000002, 0.000199999995
    114, 0.000239500005, 0.000199999995
    115, 0.000237999993, 0.000199999995
    116, 0.000236499996, 0.000199999995
    117,     0.000235, 0.000199999995
    118, 0.000233500003, 0.000199999995
    119, 0.000232000006, 0.000199999995
    120, 0.000230499994, 0.000199999995
    121, 0.000228999997, 0.000199999995
    122, 0.000227500001, 0.000199999995
    123, 0.000226000004, 0.000199999995
    124, 0.000224500007, 0.000199999995
    125, 0.000222999995, 0.000199999995
    126, 0.000221499999, 0.000199999995
    127, 0.000220000002, 0.000199999995
    128, 0.000218500005, 0.000199999995
    129, 0.000216999993, 0.000199999995
    130, 0.000215499997, 0.000199999995
    131,     0.000214, 0.000199999995
    132, 0.000212500003, 0.000199999995
    133, 0.000211000006, 0.000199999995
    134, 0.000209499995, 0.000199999995
    135, 0.000207999998, 0.000199999995
    136, 0.000206500001, 0.000199999995
    137, 0.000205000004, 0.000199999995
    138, 0.000203500007, 0.000199999995
    139, 0.000201999996, 0.000199999995
    140, 0.000200499999, 0.000199999995
    141, 0.000199000002, 0.000199999995
    142, 0.000197500005, 0.000199999995
    143, 0.000195999994, 0.000199999995
    144, 0.000194499997, 0.000199999995
    145,     0.000193, 0.000199999995
    146, 0.000191500003, 0.000199999995
    147, 0.000190000006, 0.000199999995
    148, 0.000188499995, 0.000199999995
    149, 0.000186999998, 0.000199999995
    150, 0.000185500001, 0.000199999995
    151, 0.000184000004, 0.000199999995
    152, 0.000182500007, 0.000199999995
    153, 0.000180999996, 0.000199999995
    154, 0.000179499999, 0.000199999995
    155, 0.000178000002, 0.000199999995
    156, 0.000176500005, 0.000199999995
    157, 0.000174999994, 0.000199999995
    158, 0.000173499997, 0.000199999995
    159,     0.000172, 0.000199999995
    160, 0.000170500003, 0.000199999995
    161, 0.000169000006, 0.000199999995
    162, 0.000167499995, 0.000199999995
    163, 0.000165999998, 0.000199999995
    164, 0.000164500001, 0.000199999995
    165, 0.000163000004, 0.000199999995
    166, 0.000161499993, 0.000199999995
    167, 0.000159999996, 0.000195000001
    168, 0.000159999996, 0.000190000006
    169, 0.000159999996, 0.000184999997
    170, 0.000159999996, 0.000180000003
    171, 0.000159999996, 0.000174999994
    172, 0.000159999996, 0.000169999999
    173, 0.000159999996, 0.000165000005
    174, 0.000159999996, 0.000159999996
    175, 0.000159999996, 0.000155000002
    176, 0.000159999996, 0.000150000007
    177, 0.000159999996, 0.000144999998
    178, 0.000159999996, 0.000140000004
    179, 0.000159999996, 0.000134999995
    180, 0.000159999996,      0.00013
    181, 0.000159999996, 0.000125000006
    182, 0.000159999996, 0.000119999997
    183, 0.000159999996, 0.000115000003
    184, 0.000159999996, 0.000110000001
    185, 0.000159999996, 0.000104999999
    186, 0.000159999996, 9.99999975e-05
    187, 0.000159999996, 9.50000031e-05
    188, 0.000159999996, 9.00000014e-05
    189, 0.000159999996, 8.49999997e-05
    190, 0.000159999996, 7.9999998e-05
    191, 0.000159999996, 7.50000036e-05
    192, 0.000159999996, 7.00000019e-05
    193, 0.000159999996, 6.50000002e-05
    194, 0.000159999996, 5.99999985e-05
    195, 0.000159999996, 5.50000004e-05
    196, 0.000159999996, 4.99999987e-05
    197, 0.000159999996, 4.50000007e-05
    198, 0.000159999996, 3.9999999e-05
    199, 0.000159999996, 3.50000009e-05
    200, 0.000159999996, 2.99999992e-05
    201, 0.000159999996, 2.49999994e-05
    202, 0.000159999996, 1.99999995e-05
    203, 0.000159999996, 1.49999996e-05
    204, 0.000159999996, 9.99999975e-06
    205, 0.000159999996, 4.99999987e-06
    206, 0.000161499993,           0.
    207, 0.000163000004,           0.
    208, 0.000164500001,           0.
    209, 0.000165999998,           0.
    210, 0.000167499995,           0.
    211, 0.000169000006,           0.
    212, 0.000170500003,           0.
    213,     0.000172,           0.
    214, 0.000173499997,           0.
    215, 0.000174999994,           0.
    216, 0.000176500005,           0.
    217, 0.000178000002,           0.
    218, 0.000179499999,           0.
    219, 0.000180999996,           0.
    220, 0.000182500007,           0.
    221, 0.000184000004,           0.
    222, 0.000185500001,           0.
    223, 0.000186999998,           0.
    224, 0.000188499995,           0.
    225, 0.000190000006,           0.
    226, 0.000191500003,           0.
    227,     0.000193,           0.
    228, 0.000194499997,           0.
    229, 0.000195999994,           0.
    230, 0.000197500005,           0.
    231, 0.000199000002,           0.
    232, 0.000200499999,           0.
    233, 0.000201999996,           0.
    234, 0.000203500007,           0.
    235, 0.000205000004,           0.
    236, 0.000206500001,           0.
    237, 0.000207999998,           0.
    238, 0.000209499995,           0.
    239, 0.000211000006,           0.
    240, 0.000212500003,           0.
    241,     0.000214,           0.
    242, 0.000215499997,           0.
    243, 0.000216999993,           0.
    244, 0.000218500005,           0.
    245, 0.000220000002,           0.
    246, 0.000221499999,           0.
    247, 0.000222999995,           0.
    248, 0.000224500007,           0.
    249, 0.000226000004,           0.
    250, 0.000227500001,           0.
    251, 0.000228999997,           0.
    252, 0.000230499994,           0.
    253, 0.000232000006,           0.
    254, 0.000233500003,           0.
    255,     0.000235,           0.
    256, 0.000236499996,           0.
    257, 0.000237999993,           0.
    258, 0.000239500005,           0.
    259, 0.000241000002,           0.
    260, 0.000242499998,           0.
    261, 0.000243999995,           0.
    262, 0.000245500007,           0.
    263, 0.000246999989,           0.
    264,    0.0002485,           0.
    265, 0.000250000012,           0.
    266, 0.000251499994,           0.
    267, 0.000253000006,           0.
    268, 0.000254499988,           0.
    269, 0.000255999999,           0.
    270, 0.000257500011,           0.
    271, 0.000258999993,           0.
    272, 0.000260500005,           0.
    273, 0.000261999987,           0.
    274, 0.000263499998,           0.
    275, 0.00026500001,           0.
    276, 0.000266499992,           0.
    277, 0.000268000003,           0.
    278, 0.000269499986,           0.
    279, 0.000270999997,           0.
    280, 0.000272500009,           0.
    281, 0.000273999991,           0.
    282, 0.000275500002,           0.
    283, 0.000277000014,           0.
    284, 0.000278499996,           0.
    285, 0.000280000007,           0.
    286, 0.00028149999,           0.
    287, 0.000283000001,           0.
    288, 0.000284500013,           0.
    289, 0.000285999995,           0.
    290, 0.000287500006,           0.
    291, 0.000288999989,           0.
    292,    0.0002905,           0.
    293, 0.000292000012,           0.
    294, 0.000293499994,           0.
    295, 0.000295000005,           0.
    296, 0.000296499988,           0.
    297, 0.000297999999,           0.
    298, 0.00029950001,           0.
    299, 0.000300999993,           0.
    300, 0.000302500004,           0.
    301, 0.000303999986,           0.
    302, 0.000305499998,           0.
    303, 0.000307000009,           0.
    304, 0.000308499992,           0.
    305, 0.000310000003,           0.
    306, 0.000311500015,           0.
    307, 0.000312999997,           0.
    308, 0.000314500008,           0.
    309, 0.000315999991,           0.
    310, 0.000317500002,           0.
    311, 0.000319000013,           0.
    312, 0.000320499996,           0.
    313, 0.000322000007,           0.
    314, 0.000323499989,           0.
    315, 0.000325000001,           0.
    316, 0.000326500012,           0.
    317, 0.000327999995,           0.
    318, 0.000329500006,           0.
    319, 0.000330999988,           0.
    320,    0.0003325,           0.
    321, 0.000334000011,           0.
    322, 0.000335499994,           0.
    323, 0.000337000005,           0.
    324, 0.000338499987,           0.
    325, 0.000155000002, 0.000199999995
    326, 0.000150000007, 0.000199999995
    327, 0.000144999998, 0.000199999995
    328, 0.000140000004, 0.000199999995
    329, 0.000134999995, 0.000199999995
    330,      0.00013, 0.000199999995
    331, 0.000125000006, 0.000199999995
    332, 0.000119999997, 0.000199999995
    333, 0.000115000003, 0.000199999995
    334, 0.000110000001, 0.000199999995
    335, 0.000104999999, 0.000199999995
    336, 9.99999975e-05, 0.000199999995
    337, 9.50000031e-05, 0.000199999995
    338, 9.00000014e-05, 0.000199999995
    339, 8.49999997e-05, 0.000199999995
    340, 7.9999998e-05, 0.000199999995
    341, 7.50000036e-05, 0.000199999995
    342, 7.00000019e-05, 0.000199999995
    343, 6.50000002e-05, 0.000199999995
    344, 5.99999985e-05, 0.000199999995
    345, 5.50000004e-05, 0.000199999995
    346, 4.99999987e-05, 0.000199999995
    347, 4.50000007e-05, 0.000199999995
    348, 3.9999999e-05, 0.000199999995
    349, 3.50000009e-05, 0.000199999995
    350, 2.99999992e-05, 0.000199999995
    351, 2.49999994e-05, 0.000199999995
    352, 1.99999995e-05, 0.000199999995
    353, 1.49999996e-05, 0.000199999995
    354, 9.99999975e-06, 0.000199999995
    355, 4.99999987e-06, 0.000199999995
    356,           0., 0.000195000001
    357,           0., 0.000190000006
    358,           0., 0.000184999997
    359,           0., 0.000180000003
    360,           0., 0.000174999994
    361,           0., 0.000169999999
    362,           0., 0.000165000005
    363,           0., 0.000159999996
    364,           0., 0.000155000002
    365,           0., 0.000150000007
    366,           0., 0.000144999998
    367,           0., 0.000140000004
    368,           0., 0.000134999995
    369,           0.,      0.00013
    370,           0., 0.000125000006
    371,           0., 0.000119999997
    372,           0., 0.000115000003
    373,           0., 0.000110000001
    374,           0., 0.000104999999
    375,           0., 9.99999975e-05
    376,           0., 9.50000031e-05
    377,           0., 9.00000014e-05
    378,           0., 8.49999997e-05
    379,           0., 7.9999998e-05
    380,           0., 7.50000036e-05
    381,           0., 7.00000019e-05
    382,           0., 6.50000002e-05
    383,           0., 5.99999985e-05
    384,           0., 5.50000004e-05
    385,           0., 4.99999987e-05
    386,           0., 4.50000007e-05
    387,           0., 3.9999999e-05
    388,           0., 3.50000009e-05
    389,           0., 2.99999992e-05
    390,           0., 2.49999994e-05
    391,           0., 1.99999995e-05
    392,           0., 1.49999996e-05
    393,           0., 9.99999975e-06
    394,           0., 4.99999987e-06
    395, 4.99999987e-06,           0.
    396, 9.99999975e-06,           0.
    397, 1.49999996e-05,           0.
    398, 1.99999995e-05,           0.
    399, 2.49999994e-05,           0.
    400, 2.99999992e-05,           0.
    401, 3.50000009e-05,           0.
    402, 3.9999999e-05,           0.
    403, 4.50000007e-05,           0.
    404, 4.99999987e-05,           0.
    405, 5.50000004e-05,           0.
    406, 5.99999985e-05,           0.
    407, 6.50000002e-05,           0.
    408, 7.00000019e-05,           0.
    409, 7.50000036e-05,           0.
    410, 7.9999998e-05,           0.
    411, 8.49999997e-05,           0.
    412, 9.00000014e-05,           0.
    413, 9.50000031e-05,           0.
    414, 9.99999975e-05,           0.
    415, 0.000104999999,           0.
    416, 0.000110000001,           0.
    417, 0.000115000003,           0.
    418, 0.000119999997,           0.
    419, 0.000125000006,           0.
    420,      0.00013,           0.
    421, 0.000134999995,           0.
    422, 0.000140000004,           0.
    423, 0.000144999998,           0.
    424, 0.000150000007,           0.
    425, 0.000155000002,           0.
    426, 0.000345000008,           0.
    427, 0.000349999988,           0.
    428, 0.000354999996,           0.
    429, 0.000360000005,           0.
    430, 0.000365000014,           0.
    431, 0.000369999994,           0.
    432, 0.000375000003,           0.
    433, 0.000380000012,           0.
    434, 0.000384999992,           0.
    435, 0.000390000001,           0.
    436, 0.00039500001,           0.
    437, 0.00039999999,           0.
    438, 0.000404999999,           0.
    439, 0.000410000008,           0.
    440, 0.000414999988,           0.
    441, 0.000419999997,           0.
    442, 0.000425000006,           0.
    443, 0.000429999985,           0.
    444, 0.000434999994,           0.
    445, 0.000440000003,           0.
    446, 0.000445000012,           0.
    447, 0.000449999992,           0.
    448, 0.000455000001,           0.
    449, 0.00046000001,           0.
    450, 0.00046499999,           0.
    451, 0.000469999999,           0.
    452, 0.000475000008,           0.
    453, 0.000479999988,           0.
    454, 0.000484999997,           0.
    455, 0.000490000006,           0.
    456, 0.000494999986,           0.
    457, 0.000500000024, 4.99999987e-06
    458, 0.000500000024, 9.99999975e-06
    459, 0.000500000024, 1.49999996e-05
    460, 0.000500000024, 1.99999995e-05
    461, 0.000500000024, 2.49999994e-05
    462, 0.000500000024, 2.99999992e-05
    463, 0.000500000024, 3.50000009e-05
    464, 0.000500000024, 3.9999999e-05
    465, 0.000500000024, 4.50000007e-05
    466, 0.000500000024, 4.99999987e-05
    467, 0.000500000024, 5.50000004e-05
    468, 0.000500000024, 5.99999985e-05
    469, 0.000500000024, 6.50000002e-05
    470, 0.000500000024, 7.00000019e-05
    471, 0.000500000024, 7.50000036e-05
    472, 0.000500000024, 7.9999998e-05
    473, 0.000500000024, 8.49999997e-05
    474, 0.000500000024, 9.00000014e-05
    475, 0.000500000024, 9.50000031e-05
    476, 0.000500000024, 9.99999975e-05
    477, 0.000500000024, 0.000104999999
    478, 0.000500000024, 0.000110000001
    479, 0.000500000024, 0.000115000003
    480, 0.000500000024, 0.000119999997
    481, 0.000500000024, 0.000125000006
    482, 0.000500000024,      0.00013
    483, 0.000500000024, 0.000134999995
    484, 0.000500000024, 0.000140000004
    485, 0.000500000024, 0.000144999998
    486, 0.000500000024, 0.000150000007
    487, 0.000500000024, 0.000155000002
    488, 0.000500000024, 0.000159999996
    489, 0.000500000024, 0.000165000005
    490, 0.000500000024, 0.000169999999
    491, 0.000500000024, 0.000174999994
    492, 0.000500000024, 0.000180000003
    493, 0.000500000024, 0.000184999997
    494, 0.000500000024, 0.000190000006
    495, 0.000500000024, 0.000195000001
    496, 0.000494999986, 0.000199999995
    497, 0.000490000006, 0.000199999995
    498, 0.000484999997, 0.000199999995
    499, 0.000479999988, 0.000199999995
    500, 0.000475000008, 0.000199999995
    501, 0.000469999999, 0.000199999995
    502, 0.00046499999, 0.000199999995
    503, 0.00046000001, 0.000199999995
    504, 0.000455000001, 0.000199999995
    505, 0.000449999992, 0.000199999995
    506, 0.000445000012, 0.000199999995
    507, 0.000440000003, 0.000199999995
    508, 0.000434999994, 0.000199999995
    509, 0.000429999985, 0.000199999995
    510, 0.000425000006, 0.000199999995
    511, 0.000419999997, 0.000199999995
    512, 0.000414999988, 0.000199999995
    513, 0.000410000008, 0.000199999995
    514, 0.000404999999, 0.000199999995
    515, 0.00039999999, 0.000199999995
    516, 0.00039500001, 0.000199999995
    517, 0.000390000001, 0.000199999995
    518, 0.000384999992, 0.000199999995
    519, 0.000380000012, 0.000199999995
    520, 0.000375000003, 0.000199999995
    521, 0.000369999994, 0.000199999995
    522, 0.000365000014, 0.000199999995
    523, 0.000360000005, 0.000199999995
    524, 0.000354999996, 0.000199999995
    525, 0.000349999988, 0.000199999995
    526, 0.000345000008, 0.000199999995
    527, 0.000338499987, 4.99999987e-06
    528, 0.000338499987, 9.99999975e-06
    529, 0.000338499987, 1.49999996e-05
    530, 0.000338499987, 1.99999995e-05
    531, 0.000338499987, 2.49999994e-05
    532, 0.000338499987, 2.99999992e-05
    533, 0.000338499987, 3.50000009e-05
    534, 0.000338499987, 3.9999999e-05
    535, 0.000338499987, 4.50000007e-05
    536, 0.000338499987, 4.99999987e-05
    537, 0.000338499987, 5.50000004e-05
    538, 0.000338499987, 5.99999985e-05
    539, 0.000338499987, 6.50000002e-05
    540, 0.000338499987, 7.00000019e-05
    541, 0.000338499987, 7.50000036e-05
    542, 0.000338499987, 7.9999998e-05
    543, 0.000338499987, 8.49999997e-05
    544, 0.000338499987, 9.00000014e-05
    545, 0.000338499987, 9.50000031e-05
    546, 0.000338499987, 9.99999975e-05
    547, 0.000338499987, 0.000104999999
    548, 0.000338499987, 0.000110000001
    549, 0.000338499987, 0.000115000003
    550, 0.000338499987, 0.000119999997
    551, 0.000338499987, 0.000125000006
    552, 0.000338499987,      0.00013
    553, 0.000338499987, 0.000134999995
    554, 0.000338499987, 0.000140000004
    555, 0.000338499987, 0.000144999998
    556, 0.000338499987, 0.000150000007
    557, 0.000338499987, 0.000155000002
    558, 0.000338499987, 0.000159999996
    559, 0.000338499987, 0.000165000005
    560, 0.000338499987, 0.000169999999
    561, 0.000338499987, 0.000174999994
    562, 0.000338499987, 0.000180000003
    563, 0.000338499987, 0.000184999997
    564, 0.000338499987, 0.000190000006
    565, 0.000338499987, 0.000195000001
    566, 0.000337000005, 4.99999987e-06
    567, 0.000337000005, 9.99999975e-06
    568, 0.000337000005, 1.49999996e-05
    569, 0.000337000005, 1.99999995e-05
    570, 0.000337000005, 2.49999994e-05
    571, 0.000337000005, 2.99999992e-05
    572, 0.000337000005, 3.50000009e-05
    573, 0.000337000005, 3.9999999e-05
    574, 0.000337000005, 4.50000007e-05
    575, 0.000337000005, 4.99999987e-05
    576, 0.000337000005, 5.50000004e-05
    577, 0.000337000005, 5.99999985e-05
    578, 0.000337000005, 6.50000002e-05
    579, 0.000337000005, 7.00000019e-05
    580, 0.000337000005, 7.50000036e-05
    581, 0.000337000005, 7.9999998e-05
    582, 0.000337000005, 8.49999997e-05
    583, 0.000337000005, 9.00000014e-05
    584, 0.000337000005, 9.50000031e-05
    585, 0.000337000005, 9.99999975e-05
    586, 0.000337000005, 0.000104999999
    587, 0.000337000005, 0.000110000001
    588, 0.000337000005, 0.000115000003
    589, 0.000337000005, 0.000119999997
    590, 0.000337000005, 0.000125000006
    591, 0.000337000005,      0.00013
    592, 0.000337000005, 0.000134999995
    593, 0.000337000005, 0.000140000004
    594, 0.000337000005, 0.000144999998
    595, 0.000337000005, 0.000150000007
    596, 0.000337000005, 0.000155000002
    597, 0.000337000005, 0.000159999996
    598, 0.000337000005, 0.000165000005
    599, 0.000337000005, 0.000169999999
    600, 0.000337000005, 0.000174999994
    601, 0.000337000005, 0.000180000003
    602, 0.000337000005, 0.000184999997
    603, 0.000337000005, 0.000190000006
    604, 0.000337000005, 0.000195000001
    605, 0.000335499994, 4.99999987e-06
    606, 0.000335499994, 9.99999975e-06
    607, 0.000335499994, 1.49999996e-05
    608, 0.000335499994, 1.99999995e-05
    609, 0.000335499994, 2.49999994e-05
    610, 0.000335499994, 2.99999992e-05
    611, 0.000335499994, 3.50000009e-05
    612, 0.000335499994, 3.9999999e-05
    613, 0.000335499994, 4.50000007e-05
    614, 0.000335499994, 4.99999987e-05
    615, 0.000335499994, 5.50000004e-05
    616, 0.000335499994, 5.99999985e-05
    617, 0.000335499994, 6.50000002e-05
    618, 0.000335499994, 7.00000019e-05
    619, 0.000335499994, 7.50000036e-05
    620, 0.000335499994, 7.9999998e-05
    621, 0.000335499994, 8.49999997e-05
    622, 0.000335499994, 9.00000014e-05
    623, 0.000335499994, 9.50000031e-05
    624, 0.000335499994, 9.99999975e-05
    625, 0.000335499994, 0.000104999999
    626, 0.000335499994, 0.000110000001
    627, 0.000335499994, 0.000115000003
    628, 0.000335499994, 0.000119999997
    629, 0.000335499994, 0.000125000006
    630, 0.000335499994,      0.00013
    631, 0.000335499994, 0.000134999995
    632, 0.000335499994, 0.000140000004
    633, 0.000335499994, 0.000144999998
    634, 0.000335499994, 0.000150000007
    635, 0.000335499994, 0.000155000002
    636, 0.000335499994, 0.000159999996
    637, 0.000335499994, 0.000165000005
    638, 0.000335499994, 0.000169999999
    639, 0.000335499994, 0.000174999994
    640, 0.000335499994, 0.000180000003
    641, 0.000335499994, 0.000184999997
    642, 0.000335499994, 0.000190000006
    643, 0.000335499994, 0.000195000001
    644, 0.000334000011, 4.99999987e-06
    645, 0.000334000011, 9.99999975e-06
    646, 0.000334000011, 1.49999996e-05
    647, 0.000334000011, 1.99999995e-05
    648, 0.000334000011, 2.49999994e-05
    649, 0.000334000011, 2.99999992e-05
    650, 0.000334000011, 3.50000009e-05
    651, 0.000334000011, 3.9999999e-05
    652, 0.000334000011, 4.50000007e-05
    653, 0.000334000011, 4.99999987e-05
    654, 0.000334000011, 5.50000004e-05
    655, 0.000334000011, 5.99999985e-05
    656, 0.000334000011, 6.50000002e-05
    657, 0.000334000011, 7.00000019e-05
    658, 0.000334000011, 7.50000036e-05
    659, 0.000334000011, 7.9999998e-05
    660, 0.000334000011, 8.49999997e-05
    661, 0.000334000011, 9.00000014e-05
    662, 0.000334000011, 9.50000031e-05
    663, 0.000334000011, 9.99999975e-05
    664, 0.000334000011, 0.000104999999
    665, 0.000334000011, 0.000110000001
    666, 0.000334000011, 0.000115000003
    667, 0.000334000011, 0.000119999997
    668, 0.000334000011, 0.000125000006
    669, 0.000334000011,      0.00013
    670, 0.000334000011, 0.000134999995
    671, 0.000334000011, 0.000140000004
    672, 0.000334000011, 0.000144999998
    673, 0.000334000011, 0.000150000007
    674, 0.000334000011, 0.000155000002
    675, 0.000334000011, 0.000159999996
    676, 0.000334000011, 0.000165000005
    677, 0.000334000011, 0.000169999999
    678, 0.000334000011, 0.000174999994
    679, 0.000334000011, 0.000180000003
    680, 0.000334000011, 0.000184999997
    681, 0.000334000011, 0.000190000006
    682, 0.000334000011, 0.000195000001
    683,    0.0003325, 4.99999987e-06
    684,    0.0003325, 9.99999975e-06
    685,    0.0003325, 1.49999996e-05
    686,    0.0003325, 1.99999995e-05
    687,    0.0003325, 2.49999994e-05
    688,    0.0003325, 2.99999992e-05
    689,    0.0003325, 3.50000009e-05
    690,    0.0003325, 3.9999999e-05
    691,    0.0003325, 4.50000007e-05
    692,    0.0003325, 4.99999987e-05
    693,    0.0003325, 5.50000004e-05
    694,    0.0003325, 5.99999985e-05
    695,    0.0003325, 6.50000002e-05
    696,    0.0003325, 7.00000019e-05
    697,    0.0003325, 7.50000036e-05
    698,    0.0003325, 7.9999998e-05
    699,    0.0003325, 8.49999997e-05
    700,    0.0003325, 9.00000014e-05
    701,    0.0003325, 9.50000031e-05
    702,    0.0003325, 9.99999975e-05
    703,    0.0003325, 0.000104999999
    704,    0.0003325, 0.000110000001
    705,    0.0003325, 0.000115000003
    706,    0.0003325, 0.000119999997
    707,    0.0003325, 0.000125000006
    708,    0.0003325,      0.00013
    709,    0.0003325, 0.000134999995
    710,    0.0003325, 0.000140000004
    711,    0.0003325, 0.000144999998
    712,    0.0003325, 0.000150000007
    713,    0.0003325, 0.000155000002
    714,    0.0003325, 0.000159999996
    715,    0.0003325, 0.000165000005
    716,    0.0003325, 0.000169999999
    717,    0.0003325, 0.000174999994
    718,    0.0003325, 0.000180000003
    719,    0.0003325, 0.000184999997
    720,    0.0003325, 0.000190000006
    721,    0.0003325, 0.000195000001
    722, 0.000330999988, 4.99999987e-06
    723, 0.000330999988, 9.99999975e-06
    724, 0.000330999988, 1.49999996e-05
    725, 0.000330999988, 1.99999995e-05
    726, 0.000330999988, 2.49999994e-05
    727, 0.000330999988, 2.99999992e-05
    728, 0.000330999988, 3.50000009e-05
    729, 0.000330999988, 3.9999999e-05
    730, 0.000330999988, 4.50000007e-05
    731, 0.000330999988, 4.99999987e-05
    732, 0.000330999988, 5.50000004e-05
    733, 0.000330999988, 5.99999985e-05
    734, 0.000330999988, 6.50000002e-05
    735, 0.000330999988, 7.00000019e-05
    736, 0.000330999988, 7.50000036e-05
    737, 0.000330999988, 7.9999998e-05
    738, 0.000330999988, 8.49999997e-05
    739, 0.000330999988, 9.00000014e-05
    740, 0.000330999988, 9.50000031e-05
    741, 0.000330999988, 9.99999975e-05
    742, 0.000330999988, 0.000104999999
    743, 0.000330999988, 0.000110000001
    744, 0.000330999988, 0.000115000003
    745, 0.000330999988, 0.000119999997
    746, 0.000330999988, 0.000125000006
    747, 0.000330999988,      0.00013
    748, 0.000330999988, 0.000134999995
    749, 0.000330999988, 0.000140000004
    750, 0.000330999988, 0.000144999998
    751, 0.000330999988, 0.000150000007
    752, 0.000330999988, 0.000155000002
    753, 0.000330999988, 0.000159999996
    754, 0.000330999988, 0.000165000005
    755, 0.000330999988, 0.000169999999
    756, 0.000330999988, 0.000174999994
    757, 0.000330999988, 0.000180000003
    758, 0.000330999988, 0.000184999997
    759, 0.000330999988, 0.000190000006
    760, 0.000330999988, 0.000195000001
    761, 0.000329500006, 4.99999987e-06
    762, 0.000329500006, 9.99999975e-06
    763, 0.000329500006, 1.49999996e-05
    764, 0.000329500006, 1.99999995e-05
    765, 0.000329500006, 2.49999994e-05
    766, 0.000329500006, 2.99999992e-05
    767, 0.000329500006, 3.50000009e-05
    768, 0.000329500006, 3.9999999e-05
    769, 0.000329500006, 4.50000007e-05
    770, 0.000329500006, 4.99999987e-05
    771, 0.000329500006, 5.50000004e-05
    772, 0.000329500006, 5.99999985e-05
    773, 0.000329500006, 6.50000002e-05
    774, 0.000329500006, 7.00000019e-05
    775, 0.000329500006, 7.50000036e-05
    776, 0.000329500006, 7.9999998e-05
    777, 0.000329500006, 8.49999997e-05
    778, 0.000329500006, 9.00000014e-05
    779, 0.000329500006, 9.50000031e-05
    780, 0.000329500006, 9.99999975e-05
    781, 0.000329500006, 0.000104999999
    782, 0.000329500006, 0.000110000001
    783, 0.000329500006, 0.000115000003
    784, 0.000329500006, 0.000119999997
    785, 0.000329500006, 0.000125000006
    786, 0.000329500006,      0.00013
    787, 0.000329500006, 0.000134999995
    788, 0.000329500006, 0.000140000004
    789, 0.000329500006, 0.000144999998
    790, 0.000329500006, 0.000150000007
    791, 0.000329500006, 0.000155000002
    792, 0.000329500006, 0.000159999996
    793, 0.000329500006, 0.000165000005
    794, 0.000329500006, 0.000169999999
    795, 0.000329500006, 0.000174999994
    796, 0.000329500006, 0.000180000003
    797, 0.000329500006, 0.000184999997
    798, 0.000329500006, 0.000190000006
    799, 0.000329500006, 0.000195000001
    800, 0.000327999995, 4.99999987e-06
    801, 0.000327999995, 9.99999975e-06
    802, 0.000327999995, 1.49999996e-05
    803, 0.000327999995, 1.99999995e-05
    804, 0.000327999995, 2.49999994e-05
    805, 0.000327999995, 2.99999992e-05
    806, 0.000327999995, 3.50000009e-05
    807, 0.000327999995, 3.9999999e-05
    808, 0.000327999995, 4.50000007e-05
    809, 0.000327999995, 4.99999987e-05
    810, 0.000327999995, 5.50000004e-05
    811, 0.000327999995, 5.99999985e-05
    812, 0.000327999995, 6.50000002e-05
    813, 0.000327999995, 7.00000019e-05
    814, 0.000327999995, 7.50000036e-05
    815, 0.000327999995, 7.9999998e-05
    816, 0.000327999995, 8.49999997e-05
    817, 0.000327999995, 9.00000014e-05
    818, 0.000327999995, 9.50000031e-05
    819, 0.000327999995, 9.99999975e-05
    820, 0.000327999995, 0.000104999999
    821, 0.000327999995, 0.000110000001
    822, 0.000327999995, 0.000115000003
    823, 0.000327999995, 0.000119999997
    824, 0.000327999995, 0.000125000006
    825, 0.000327999995,      0.00013
    826, 0.000327999995, 0.000134999995
    827, 0.000327999995, 0.000140000004
    828, 0.000327999995, 0.000144999998
    829, 0.000327999995, 0.000150000007
    830, 0.000327999995, 0.000155000002
    831, 0.000327999995, 0.000159999996
    832, 0.000327999995, 0.000165000005
    833, 0.000327999995, 0.000169999999
    834, 0.000327999995, 0.000174999994
    835, 0.000327999995, 0.000180000003
    836, 0.000327999995, 0.000184999997
    837, 0.000327999995, 0.000190000006
    838, 0.000327999995, 0.000195000001
    839, 0.000326500012, 4.99999987e-06
    840, 0.000326500012, 9.99999975e-06
    841, 0.000326500012, 1.49999996e-05
    842, 0.000326500012, 1.99999995e-05
    843, 0.000326500012, 2.49999994e-05
    844, 0.000326500012, 2.99999992e-05
    845, 0.000326500012, 3.50000009e-05
    846, 0.000326500012, 3.9999999e-05
    847, 0.000326500012, 4.50000007e-05
    848, 0.000326500012, 4.99999987e-05
    849, 0.000326500012, 5.50000004e-05
    850, 0.000326500012, 5.99999985e-05
    851, 0.000326500012, 6.50000002e-05
    852, 0.000326500012, 7.00000019e-05
    853, 0.000326500012, 7.50000036e-05
    854, 0.000326500012, 7.9999998e-05
    855, 0.000326500012, 8.49999997e-05
    856, 0.000326500012, 9.00000014e-05
    857, 0.000326500012, 9.50000031e-05
    858, 0.000326500012, 9.99999975e-05
    859, 0.000326500012, 0.000104999999
    860, 0.000326500012, 0.000110000001
    861, 0.000326500012, 0.000115000003
    862, 0.000326500012, 0.000119999997
    863, 0.000326500012, 0.000125000006
    864, 0.000326500012,      0.00013
    865, 0.000326500012, 0.000134999995
    866, 0.000326500012, 0.000140000004
    867, 0.000326500012, 0.000144999998
    868, 0.000326500012, 0.000150000007
    869, 0.000326500012, 0.000155000002
    870, 0.000326500012, 0.000159999996
    871, 0.000326500012, 0.000165000005
    872, 0.000326500012, 0.000169999999
    873, 0.000326500012, 0.000174999994
    874, 0.000326500012, 0.000180000003
    875, 0.000326500012, 0.000184999997
    876, 0.000326500012, 0.000190000006
    877, 0.000326500012, 0.000195000001
    878, 0.000325000001, 4.99999987e-06
    879, 0.000325000001, 9.99999975e-06
    880, 0.000325000001, 1.49999996e-05
    881, 0.000325000001, 1.99999995e-05
    882, 0.000325000001, 2.49999994e-05
    883, 0.000325000001, 2.99999992e-05
    884, 0.000325000001, 3.50000009e-05
    885, 0.000325000001, 3.9999999e-05
    886, 0.000325000001, 4.50000007e-05
    887, 0.000325000001, 4.99999987e-05
    888, 0.000325000001, 5.50000004e-05
    889, 0.000325000001, 5.99999985e-05
    890, 0.000325000001, 6.50000002e-05
    891, 0.000325000001, 7.00000019e-05
    892, 0.000325000001, 7.50000036e-05
    893, 0.000325000001, 7.9999998e-05
    894, 0.000325000001, 8.49999997e-05
    895, 0.000325000001, 9.00000014e-05
    896, 0.000325000001, 9.50000031e-05
    897, 0.000325000001, 9.99999975e-05
    898, 0.000325000001, 0.000104999999
    899, 0.000325000001, 0.000110000001
    900, 0.000325000001, 0.000115000003
    901, 0.000325000001, 0.000119999997
    902, 0.000325000001, 0.000125000006
    903, 0.000325000001,      0.00013
    904, 0.000325000001, 0.000134999995
    905, 0.000325000001, 0.000140000004
    906, 0.000325000001, 0.000144999998
    907, 0.000325000001, 0.000150000007
    908, 0.000325000001, 0.000155000002
    909, 0.000325000001, 0.000159999996
    910, 0.000325000001, 0.000165000005
    911, 0.000325000001, 0.000169999999
    912, 0.000325000001, 0.000174999994
    913, 0.000325000001, 0.000180000003
    914, 0.000325000001, 0.000184999997
    915, 0.000325000001, 0.000190000006
    916, 0.000325000001, 0.000195000001
    917, 0.000323499989, 4.99999987e-06
    918, 0.000323499989, 9.99999975e-06
    919, 0.000323499989, 1.49999996e-05
    920, 0.000323499989, 1.99999995e-05
    921, 0.000323499989, 2.49999994e-05
    922, 0.000323499989, 2.99999992e-05
    923, 0.000323499989, 3.50000009e-05
    924, 0.000323499989, 3.9999999e-05
    925, 0.000323499989, 4.50000007e-05
    926, 0.000323499989, 4.99999987e-05
    927, 0.000323499989, 5.50000004e-05
    928, 0.000323499989, 5.99999985e-05
    929, 0.000323499989, 6.50000002e-05
    930, 0.000323499989, 7.00000019e-05
    931, 0.000323499989, 7.50000036e-05
    932, 0.000323499989, 7.9999998e-05
    933, 0.000323499989, 8.49999997e-05
    934, 0.000323499989, 9.00000014e-05
    935, 0.000323499989, 9.50000031e-05
    936, 0.000323499989, 9.99999975e-05
    937, 0.000323499989, 0.000104999999
    938, 0.000323499989, 0.000110000001
    939, 0.000323499989, 0.000115000003
    940, 0.000323499989, 0.000119999997
    941, 0.000323499989, 0.000125000006
    942, 0.000323499989,      0.00013
    943, 0.000323499989, 0.000134999995
    944, 0.000323499989, 0.000140000004
    945, 0.000323499989, 0.000144999998
    946, 0.000323499989, 0.000150000007
    947, 0.000323499989, 0.000155000002
    948, 0.000323499989, 0.000159999996
    949, 0.000323499989, 0.000165000005
    950, 0.000323499989, 0.000169999999
    951, 0.000323499989, 0.000174999994
    952, 0.000323499989, 0.000180000003
    953, 0.000323499989, 0.000184999997
    954, 0.000323499989, 0.000190000006
    955, 0.000323499989, 0.000195000001
    956, 0.000322000007, 4.99999987e-06
    957, 0.000322000007, 9.99999975e-06
    958, 0.000322000007, 1.49999996e-05
    959, 0.000322000007, 1.99999995e-05
    960, 0.000322000007, 2.49999994e-05
    961, 0.000322000007, 2.99999992e-05
    962, 0.000322000007, 3.50000009e-05
    963, 0.000322000007, 3.9999999e-05
    964, 0.000322000007, 4.50000007e-05
    965, 0.000322000007, 4.99999987e-05
    966, 0.000322000007, 5.50000004e-05
    967, 0.000322000007, 5.99999985e-05
    968, 0.000322000007, 6.50000002e-05
    969, 0.000322000007, 7.00000019e-05
    970, 0.000322000007, 7.50000036e-05
    971, 0.000322000007, 7.9999998e-05
    972, 0.000322000007, 8.49999997e-05
    973, 0.000322000007, 9.00000014e-05
    974, 0.000322000007, 9.50000031e-05
    975, 0.000322000007, 9.99999975e-05
    976, 0.000322000007, 0.000104999999
    977, 0.000322000007, 0.000110000001
    978, 0.000322000007, 0.000115000003
    979, 0.000322000007, 0.000119999997
    980, 0.000322000007, 0.000125000006
    981, 0.000322000007,      0.00013
    982, 0.000322000007, 0.000134999995
    983, 0.000322000007, 0.000140000004
    984, 0.000322000007, 0.000144999998
    985, 0.000322000007, 0.000150000007
    986, 0.000322000007, 0.000155000002
    987, 0.000322000007, 0.000159999996
    988, 0.000322000007, 0.000165000005
    989, 0.000322000007, 0.000169999999
    990, 0.000322000007, 0.000174999994
    991, 0.000322000007, 0.000180000003
    992, 0.000322000007, 0.000184999997
    993, 0.000322000007, 0.000190000006
    994, 0.000322000007, 0.000195000001
    995, 0.000320499996, 4.99999987e-06
    996, 0.000320499996, 9.99999975e-06
    997, 0.000320499996, 1.49999996e-05
    998, 0.000320499996, 1.99999995e-05
    999, 0.000320499996, 2.49999994e-05
   1000, 0.000320499996, 2.99999992e-05
   1001, 0.000320499996, 3.50000009e-05
   1002, 0.000320499996, 3.9999999e-05
   1003, 0.000320499996, 4.50000007e-05
   1004, 0.000320499996, 4.99999987e-05
   1005, 0.000320499996, 5.50000004e-05
   1006, 0.000320499996, 5.99999985e-05
   1007, 0.000320499996, 6.50000002e-05
   1008, 0.000320499996, 7.00000019e-05
   1009, 0.000320499996, 7.50000036e-05
   1010, 0.000320499996, 7.9999998e-05
   1011, 0.000320499996, 8.49999997e-05
   1012, 0.000320499996, 9.00000014e-05
   1013, 0.000320499996, 9.50000031e-05
   1014, 0.000320499996, 9.99999975e-05
   1015, 0.000320499996, 0.000104999999
   1016, 0.000320499996, 0.000110000001
   1017, 0.000320499996, 0.000115000003
   1018, 0.000320499996, 0.000119999997
   1019, 0.000320499996, 0.000125000006
   1020, 0.000320499996,      0.00013
   1021, 0.000320499996, 0.000134999995
   1022, 0.000320499996, 0.000140000004
   1023, 0.000320499996, 0.000144999998
   1024, 0.000320499996, 0.000150000007
   1025, 0.000320499996, 0.000155000002
   1026, 0.000320499996, 0.000159999996
   1027, 0.000320499996, 0.000165000005
   1028, 0.000320499996, 0.000169999999
   1029, 0.000320499996, 0.000174999994
   1030, 0.000320499996, 0.000180000003
   1031, 0.000320499996, 0.000184999997
   1032, 0.000320499996, 0.000190000006
   1033, 0.000320499996, 0.000195000001
   1034, 0.000319000013, 4.99999987e-06
   1035, 0.000319000013, 9.99999975e-06
   1036, 0.000319000013, 1.49999996e-05
   1037, 0.000319000013, 1.99999995e-05
   1038, 0.000319000013, 2.49999994e-05
   1039, 0.000319000013, 2.99999992e-05
   1040, 0.000319000013, 3.50000009e-05
   1041, 0.000319000013, 3.9999999e-05
   1042, 0.000319000013, 4.50000007e-05
   1043, 0.000319000013, 4.99999987e-05
   1044, 0.000319000013, 5.50000004e-05
   1045, 0.000319000013, 5.99999985e-05
   1046, 0.000319000013, 6.50000002e-05
   1047, 0.000319000013, 7.00000019e-05
   1048, 0.000319000013, 7.50000036e-05
   1049, 0.000319000013, 7.9999998e-05
   1050, 0.000319000013, 8.49999997e-05
   1051, 0.000319000013, 9.00000014e-05
   1052, 0.000319000013, 9.50000031e-05
   1053, 0.000319000013, 9.99999975e-05
   1054, 0.000319000013, 0.000104999999
   1055, 0.000319000013, 0.000110000001
   1056, 0.000319000013, 0.000115000003
   1057, 0.000319000013, 0.000119999997
   1058, 0.000319000013, 0.000125000006
   1059, 0.000319000013,      0.00013
   1060, 0.000319000013, 0.000134999995
   1061, 0.000319000013, 0.000140000004
   1062, 0.000319000013, 0.000144999998
   1063, 0.000319000013, 0.000150000007
   1064, 0.000319000013, 0.000155000002
   1065, 0.000319000013, 0.000159999996
   1066, 0.000319000013, 0.000165000005
   1067, 0.000319000013, 0.000169999999
   1068, 0.000319000013, 0.000174999994
   1069, 0.000319000013, 0.000180000003
   1070, 0.000319000013, 0.000184999997
   1071, 0.000319000013, 0.000190000006
   1072, 0.000319000013, 0.000195000001
   1073, 0.000317500002, 4.99999987e-06
   1074, 0.000317500002, 9.99999975e-06
   1075, 0.000317500002, 1.49999996e-05
   1076, 0.000317500002, 1.99999995e-05
   1077, 0.000317500002, 2.49999994e-05
   1078, 0.000317500002, 2.99999992e-05
   1079, 0.000317500002, 3.50000009e-05
   1080, 0.000317500002, 3.9999999e-05
   1081, 0.000317500002, 4.50000007e-05
   1082, 0.000317500002, 4.99999987e-05
   1083, 0.000317500002, 5.50000004e-05
   1084, 0.000317500002, 5.99999985e-05
   1085, 0.000317500002, 6.50000002e-05
   1086, 0.000317500002, 7.00000019e-05
   1087, 0.000317500002, 7.50000036e-05
   1088, 0.000317500002, 7.9999998e-05
   1089, 0.000317500002, 8.49999997e-05
   1090, 0.000317500002, 9.00000014e-05
   1091, 0.000317500002, 9.50000031e-05
   1092, 0.000317500002, 9.99999975e-05
   1093, 0.000317500002, 0.000104999999
   1094, 0.000317500002, 0.000110000001
   1095, 0.000317500002, 0.000115000003
   1096, 0.000317500002, 0.000119999997
   1097, 0.000317500002, 0.000125000006
   1098, 0.000317500002,      0.00013
   1099, 0.000317500002, 0.000134999995
   1100, 0.000317500002, 0.000140000004
   1101, 0.000317500002, 0.000144999998
   1102, 0.000317500002, 0.000150000007
   1103, 0.000317500002, 0.000155000002
   1104, 0.000317500002, 0.000159999996
   1105, 0.000317500002, 0.000165000005
   1106, 0.000317500002, 0.000169999999
   1107, 0.000317500002, 0.000174999994
   1108, 0.000317500002, 0.000180000003
   1109, 0.000317500002, 0.000184999997
   1110, 0.000317500002, 0.000190000006
   1111, 0.000317500002, 0.000195000001
   1112, 0.000315999991, 4.99999987e-06
   1113, 0.000315999991, 9.99999975e-06
   1114, 0.000315999991, 1.49999996e-05
   1115, 0.000315999991, 1.99999995e-05
   1116, 0.000315999991, 2.49999994e-05
   1117, 0.000315999991, 2.99999992e-05
   1118, 0.000315999991, 3.50000009e-05
   1119, 0.000315999991, 3.9999999e-05
   1120, 0.000315999991, 4.50000007e-05
   1121, 0.000315999991, 4.99999987e-05
   1122, 0.000315999991, 5.50000004e-05
   1123, 0.000315999991, 5.99999985e-05
   1124, 0.000315999991, 6.50000002e-05
   1125, 0.000315999991, 7.00000019e-05
   1126, 0.000315999991, 7.50000036e-05
   1127, 0.000315999991, 7.9999998e-05
   1128, 0.000315999991, 8.49999997e-05
   1129, 0.000315999991, 9.00000014e-05
   1130, 0.000315999991, 9.50000031e-05
   1131, 0.000315999991, 9.99999975e-05
   1132, 0.000315999991, 0.000104999999
   1133, 0.000315999991, 0.000110000001
   1134, 0.000315999991, 0.000115000003
   1135, 0.000315999991, 0.000119999997
   1136, 0.000315999991, 0.000125000006
   1137, 0.000315999991,      0.00013
   1138, 0.000315999991, 0.000134999995
   1139, 0.000315999991, 0.000140000004
   1140, 0.000315999991, 0.000144999998
   1141, 0.000315999991, 0.000150000007
   1142, 0.000315999991, 0.000155000002
   1143, 0.000315999991, 0.000159999996
   1144, 0.000315999991, 0.000165000005
   1145, 0.000315999991, 0.000169999999
   1146, 0.000315999991, 0.000174999994
   1147, 0.000315999991, 0.000180000003
   1148, 0.000315999991, 0.000184999997
   1149, 0.000315999991, 0.000190000006
   1150, 0.000315999991, 0.000195000001
   1151, 0.000314500008, 4.99999987e-06
   1152, 0.000314500008, 9.99999975e-06
   1153, 0.000314500008, 1.49999996e-05
   1154, 0.000314500008, 1.99999995e-05
   1155, 0.000314500008, 2.49999994e-05
   1156, 0.000314500008, 2.99999992e-05
   1157, 0.000314500008, 3.50000009e-05
   1158, 0.000314500008, 3.9999999e-05
   1159, 0.000314500008, 4.50000007e-05
   1160, 0.000314500008, 4.99999987e-05
   1161, 0.000314500008, 5.50000004e-05
   1162, 0.000314500008, 5.99999985e-05
   1163, 0.000314500008, 6.50000002e-05
   1164, 0.000314500008, 7.00000019e-05
   1165, 0.000314500008, 7.50000036e-05
   1166, 0.000314500008, 7.9999998e-05
   1167, 0.000314500008, 8.49999997e-05
   1168, 0.000314500008, 9.00000014e-05
   1169, 0.000314500008, 9.50000031e-05
   1170, 0.000314500008, 9.99999975e-05
   1171, 0.000314500008, 0.000104999999
   1172, 0.000314500008, 0.000110000001
   1173, 0.000314500008, 0.000115000003
   1174, 0.000314500008, 0.000119999997
   1175, 0.000314500008, 0.000125000006
   1176, 0.000314500008,      0.00013
   1177, 0.000314500008, 0.000134999995
   1178, 0.000314500008, 0.000140000004
   1179, 0.000314500008, 0.000144999998
   1180, 0.000314500008, 0.000150000007
   1181, 0.000314500008, 0.000155000002
   1182, 0.000314500008, 0.000159999996
   1183, 0.000314500008, 0.000165000005
   1184, 0.000314500008, 0.000169999999
   1185, 0.000314500008, 0.000174999994
   1186, 0.000314500008, 0.000180000003
   1187, 0.000314500008, 0.000184999997
   1188, 0.000314500008, 0.000190000006
   1189, 0.000314500008, 0.000195000001
   1190, 0.000312999997, 4.99999987e-06
   1191, 0.000312999997, 9.99999975e-06
   1192, 0.000312999997, 1.49999996e-05
   1193, 0.000312999997, 1.99999995e-05
   1194, 0.000312999997, 2.49999994e-05
   1195, 0.000312999997, 2.99999992e-05
   1196, 0.000312999997, 3.50000009e-05
   1197, 0.000312999997, 3.9999999e-05
   1198, 0.000312999997, 4.50000007e-05
   1199, 0.000312999997, 4.99999987e-05
   1200, 0.000312999997, 5.50000004e-05
   1201, 0.000312999997, 5.99999985e-05
   1202, 0.000312999997, 6.50000002e-05
   1203, 0.000312999997, 7.00000019e-05
   1204, 0.000312999997, 7.50000036e-05
   1205, 0.000312999997, 7.9999998e-05
   1206, 0.000312999997, 8.49999997e-05
   1207, 0.000312999997, 9.00000014e-05
   1208, 0.000312999997, 9.50000031e-05
   1209, 0.000312999997, 9.99999975e-05
   1210, 0.000312999997, 0.000104999999
   1211, 0.000312999997, 0.000110000001
   1212, 0.000312999997, 0.000115000003
   1213, 0.000312999997, 0.000119999997
   1214, 0.000312999997, 0.000125000006
   1215, 0.000312999997,      0.00013
   1216, 0.000312999997, 0.000134999995
   1217, 0.000312999997, 0.000140000004
   1218, 0.000312999997, 0.000144999998
   1219, 0.000312999997, 0.000150000007
   1220, 0.000312999997, 0.000155000002
   1221, 0.000312999997, 0.000159999996
   1222, 0.000312999997, 0.000165000005
   1223, 0.000312999997, 0.000169999999
   1224, 0.000312999997, 0.000174999994
   1225, 0.000312999997, 0.000180000003
   1226, 0.000312999997, 0.000184999997
   1227, 0.000312999997, 0.000190000006
   1228, 0.000312999997, 0.000195000001
   1229, 0.000311500015, 4.99999987e-06
   1230, 0.000311500015, 9.99999975e-06
   1231, 0.000311500015, 1.49999996e-05
   1232, 0.000311500015, 1.99999995e-05
   1233, 0.000311500015, 2.49999994e-05
   1234, 0.000311500015, 2.99999992e-05
   1235, 0.000311500015, 3.50000009e-05
   1236, 0.000311500015, 3.9999999e-05
   1237, 0.000311500015, 4.50000007e-05
   1238, 0.000311500015, 4.99999987e-05
   1239, 0.000311500015, 5.50000004e-05
   1240, 0.000311500015, 5.99999985e-05
   1241, 0.000311500015, 6.50000002e-05
   1242, 0.000311500015, 7.00000019e-05
   1243, 0.000311500015, 7.50000036e-05
   1244, 0.000311500015, 7.9999998e-05
   1245, 0.000311500015, 8.49999997e-05
   1246, 0.000311500015, 9.00000014e-05
   1247, 0.000311500015, 9.50000031e-05
   1248, 0.000311500015, 9.99999975e-05
   1249, 0.000311500015, 0.000104999999
   1250, 0.000311500015, 0.000110000001
   1251, 0.000311500015, 0.000115000003
   1252, 0.000311500015, 0.000119999997
   1253, 0.000311500015, 0.000125000006
   1254, 0.000311500015,      0.00013
   1255, 0.000311500015, 0.000134999995
   1256, 0.000311500015, 0.000140000004
   1257, 0.000311500015, 0.000144999998
   1258, 0.000311500015, 0.000150000007
   1259, 0.000311500015, 0.000155000002
   1260, 0.000311500015, 0.000159999996
   1261, 0.000311500015, 0.000165000005
   1262, 0.000311500015, 0.000169999999
   1263, 0.000311500015, 0.000174999994
   1264, 0.000311500015, 0.000180000003
   1265, 0.000311500015, 0.000184999997
   1266, 0.000311500015, 0.000190000006
   1267, 0.000311500015, 0.000195000001
   1268, 0.000310000003, 4.99999987e-06
   1269, 0.000310000003, 9.99999975e-06
   1270, 0.000310000003, 1.49999996e-05
   1271, 0.000310000003, 1.99999995e-05
   1272, 0.000310000003, 2.49999994e-05
   1273, 0.000310000003, 2.99999992e-05
   1274, 0.000310000003, 3.50000009e-05
   1275, 0.000310000003, 3.9999999e-05
   1276, 0.000310000003, 4.50000007e-05
   1277, 0.000310000003, 4.99999987e-05
   1278, 0.000310000003, 5.50000004e-05
   1279, 0.000310000003, 5.99999985e-05
   1280, 0.000310000003, 6.50000002e-05
   1281, 0.000310000003, 7.00000019e-05
   1282, 0.000310000003, 7.50000036e-05
   1283, 0.000310000003, 7.9999998e-05
   1284, 0.000310000003, 8.49999997e-05
   1285, 0.000310000003, 9.00000014e-05
   1286, 0.000310000003, 9.50000031e-05
   1287, 0.000310000003, 9.99999975e-05
   1288, 0.000310000003, 0.000104999999
   1289, 0.000310000003, 0.000110000001
   1290, 0.000310000003, 0.000115000003
   1291, 0.000310000003, 0.000119999997
   1292, 0.000310000003, 0.000125000006
   1293, 0.000310000003,      0.00013
   1294, 0.000310000003, 0.000134999995
   1295, 0.000310000003, 0.000140000004
   1296, 0.000310000003, 0.000144999998
   1297, 0.000310000003, 0.000150000007
   1298, 0.000310000003, 0.000155000002
   1299, 0.000310000003, 0.000159999996
   1300, 0.000310000003, 0.000165000005
   1301, 0.000310000003, 0.000169999999
   1302, 0.000310000003, 0.000174999994
   1303, 0.000310000003, 0.000180000003
   1304, 0.000310000003, 0.000184999997
   1305, 0.000310000003, 0.000190000006
   1306, 0.000310000003, 0.000195000001
   1307, 0.000308499992, 4.99999987e-06
   1308, 0.000308499992, 9.99999975e-06
   1309, 0.000308499992, 1.49999996e-05
   1310, 0.000308499992, 1.99999995e-05
   1311, 0.000308499992, 2.49999994e-05
   1312, 0.000308499992, 2.99999992e-05
   1313, 0.000308499992, 3.50000009e-05
   1314, 0.000308499992, 3.9999999e-05
   1315, 0.000308499992, 4.50000007e-05
   1316, 0.000308499992, 4.99999987e-05
   1317, 0.000308499992, 5.50000004e-05
   1318, 0.000308499992, 5.99999985e-05
   1319, 0.000308499992, 6.50000002e-05
   1320, 0.000308499992, 7.00000019e-05
   1321, 0.000308499992, 7.50000036e-05
   1322, 0.000308499992, 7.9999998e-05
   1323, 0.000308499992, 8.49999997e-05
   1324, 0.000308499992, 9.00000014e-05
   1325, 0.000308499992, 9.50000031e-05
   1326, 0.000308499992, 9.99999975e-05
   1327, 0.000308499992, 0.000104999999
   1328, 0.000308499992, 0.000110000001
   1329, 0.000308499992, 0.000115000003
   1330, 0.000308499992, 0.000119999997
   1331, 0.000308499992, 0.000125000006
   1332, 0.000308499992,      0.00013
   1333, 0.000308499992, 0.000134999995
   1334, 0.000308499992, 0.000140000004
   1335, 0.000308499992, 0.000144999998
   1336, 0.000308499992, 0.000150000007
   1337, 0.000308499992, 0.000155000002
   1338, 0.000308499992, 0.000159999996
   1339, 0.000308499992, 0.000165000005
   1340, 0.000308499992, 0.000169999999
   1341, 0.000308499992, 0.000174999994
   1342, 0.000308499992, 0.000180000003
   1343, 0.000308499992, 0.000184999997
   1344, 0.000308499992, 0.000190000006
   1345, 0.000308499992, 0.000195000001
   1346, 0.000307000009, 4.99999987e-06
   1347, 0.000307000009, 9.99999975e-06
   1348, 0.000307000009, 1.49999996e-05
   1349, 0.000307000009, 1.99999995e-05
   1350, 0.000307000009, 2.49999994e-05
   1351, 0.000307000009, 2.99999992e-05
   1352, 0.000307000009, 3.50000009e-05
   1353, 0.000307000009, 3.9999999e-05
   1354, 0.000307000009, 4.50000007e-05
   1355, 0.000307000009, 4.99999987e-05
   1356, 0.000307000009, 5.50000004e-05
   1357, 0.000307000009, 5.99999985e-05
   1358, 0.000307000009, 6.50000002e-05
   1359, 0.000307000009, 7.00000019e-05
   1360, 0.000307000009, 7.50000036e-05
   1361, 0.000307000009, 7.9999998e-05
   1362, 0.000307000009, 8.49999997e-05
   1363, 0.000307000009, 9.00000014e-05
   1364, 0.000307000009, 9.50000031e-05
   1365, 0.000307000009, 9.99999975e-05
   1366, 0.000307000009, 0.000104999999
   1367, 0.000307000009, 0.000110000001
   1368, 0.000307000009, 0.000115000003
   1369, 0.000307000009, 0.000119999997
   1370, 0.000307000009, 0.000125000006
   1371, 0.000307000009,      0.00013
   1372, 0.000307000009, 0.000134999995
   1373, 0.000307000009, 0.000140000004
   1374, 0.000307000009, 0.000144999998
   1375, 0.000307000009, 0.000150000007
   1376, 0.000307000009, 0.000155000002
   1377, 0.000307000009, 0.000159999996
   1378, 0.000307000009, 0.000165000005
   1379, 0.000307000009, 0.000169999999
   1380, 0.000307000009, 0.000174999994
   1381, 0.000307000009, 0.000180000003
   1382, 0.000307000009, 0.000184999997
   1383, 0.000307000009, 0.000190000006
   1384, 0.000307000009, 0.000195000001
   1385, 0.000305499998, 4.99999987e-06
   1386, 0.000305499998, 9.99999975e-06
   1387, 0.000305499998, 1.49999996e-05
   1388, 0.000305499998, 1.99999995e-05
   1389, 0.000305499998, 2.49999994e-05
   1390, 0.000305499998, 2.99999992e-05
   1391, 0.000305499998, 3.50000009e-05
   1392, 0.000305499998, 3.9999999e-05
   1393, 0.000305499998, 4.50000007e-05
   1394, 0.000305499998, 4.99999987e-05
   1395, 0.000305499998, 5.50000004e-05
   1396, 0.000305499998, 5.99999985e-05
   1397, 0.000305499998, 6.50000002e-05
   1398, 0.000305499998, 7.00000019e-05
   1399, 0.000305499998, 7.50000036e-05
   1400, 0.000305499998, 7.9999998e-05
   1401, 0.000305499998, 8.49999997e-05
   1402, 0.000305499998, 9.00000014e-05
   1403, 0.000305499998, 9.50000031e-05
   1404, 0.000305499998, 9.99999975e-05
   1405, 0.000305499998, 0.000104999999
   1406, 0.000305499998, 0.000110000001
   1407, 0.000305499998, 0.000115000003
   1408, 0.000305499998, 0.000119999997
   1409, 0.000305499998, 0.000125000006
   1410, 0.000305499998,      0.00013
   1411, 0.000305499998, 0.000134999995
   1412, 0.000305499998, 0.000140000004
   1413, 0.000305499998, 0.000144999998
   1414, 0.000305499998, 0.000150000007
   1415, 0.000305499998, 0.000155000002
   1416, 0.000305499998, 0.000159999996
   1417, 0.000305499998, 0.000165000005
   1418, 0.000305499998, 0.000169999999
   1419, 0.000305499998, 0.000174999994
   1420, 0.000305499998, 0.000180000003
   1421, 0.000305499998, 0.000184999997
   1422, 0.000305499998, 0.000190000006
   1423, 0.000305499998, 0.000195000001
   1424, 0.000303999986, 4.99999987e-06
   1425, 0.000303999986, 9.99999975e-06
   1426, 0.000303999986, 1.49999996e-05
   1427, 0.000303999986, 1.99999995e-05
   1428, 0.000303999986, 2.49999994e-05
   1429, 0.000303999986, 2.99999992e-05
   1430, 0.000303999986, 3.50000009e-05
   1431, 0.000303999986, 3.9999999e-05
   1432, 0.000303999986, 4.50000007e-05
   1433, 0.000303999986, 4.99999987e-05
   1434, 0.000303999986, 5.50000004e-05
   1435, 0.000303999986, 5.99999985e-05
   1436, 0.000303999986, 6.50000002e-05
   1437, 0.000303999986, 7.00000019e-05
   1438, 0.000303999986, 7.50000036e-05
   1439, 0.000303999986, 7.9999998e-05
   1440, 0.000303999986, 8.49999997e-05
   1441, 0.000303999986, 9.00000014e-05
   1442, 0.000303999986, 9.50000031e-05
   1443, 0.000303999986, 9.99999975e-05
   1444, 0.000303999986, 0.000104999999
   1445, 0.000303999986, 0.000110000001
   1446, 0.000303999986, 0.000115000003
   1447, 0.000303999986, 0.000119999997
   1448, 0.000303999986, 0.000125000006
   1449, 0.000303999986,      0.00013
   1450, 0.000303999986, 0.000134999995
   1451, 0.000303999986, 0.000140000004
   1452, 0.000303999986, 0.000144999998
   1453, 0.000303999986, 0.000150000007
   1454, 0.000303999986, 0.000155000002
   1455, 0.000303999986, 0.000159999996
   1456, 0.000303999986, 0.000165000005
   1457, 0.000303999986, 0.000169999999
   1458, 0.000303999986, 0.000174999994
   1459, 0.000303999986, 0.000180000003
   1460, 0.000303999986, 0.000184999997
   1461, 0.000303999986, 0.000190000006
   1462, 0.000303999986, 0.000195000001
   1463, 0.000302500004, 4.99999987e-06
   1464, 0.000302500004, 9.99999975e-06
   1465, 0.000302500004, 1.49999996e-05
   1466, 0.000302500004, 1.99999995e-05
   1467, 0.000302500004, 2.49999994e-05
   1468, 0.000302500004, 2.99999992e-05
   1469, 0.000302500004, 3.50000009e-05
   1470, 0.000302500004, 3.9999999e-05
   1471, 0.000302500004, 4.50000007e-05
   1472, 0.000302500004, 4.99999987e-05
   1473, 0.000302500004, 5.50000004e-05
   1474, 0.000302500004, 5.99999985e-05
   1475, 0.000302500004, 6.50000002e-05
   1476, 0.000302500004, 7.00000019e-05
   1477, 0.000302500004, 7.50000036e-05
   1478, 0.000302500004, 7.9999998e-05
   1479, 0.000302500004, 8.49999997e-05
   1480, 0.000302500004, 9.00000014e-05
   1481, 0.000302500004, 9.50000031e-05
   1482, 0.000302500004, 9.99999975e-05
   1483, 0.000302500004, 0.000104999999
   1484, 0.000302500004, 0.000110000001
   1485, 0.000302500004, 0.000115000003
   1486, 0.000302500004, 0.000119999997
   1487, 0.000302500004, 0.000125000006
   1488, 0.000302500004,      0.00013
   1489, 0.000302500004, 0.000134999995
   1490, 0.000302500004, 0.000140000004
   1491, 0.000302500004, 0.000144999998
   1492, 0.000302500004, 0.000150000007
   1493, 0.000302500004, 0.000155000002
   1494, 0.000302500004, 0.000159999996
   1495, 0.000302500004, 0.000165000005
   1496, 0.000302500004, 0.000169999999
   1497, 0.000302500004, 0.000174999994
   1498, 0.000302500004, 0.000180000003
   1499, 0.000302500004, 0.000184999997
   1500, 0.000302500004, 0.000190000006
   1501, 0.000302500004, 0.000195000001
   1502, 0.000300999993, 4.99999987e-06
   1503, 0.000300999993, 9.99999975e-06
   1504, 0.000300999993, 1.49999996e-05
   1505, 0.000300999993, 1.99999995e-05
   1506, 0.000300999993, 2.49999994e-05
   1507, 0.000300999993, 2.99999992e-05
   1508, 0.000300999993, 3.50000009e-05
   1509, 0.000300999993, 3.9999999e-05
   1510, 0.000300999993, 4.50000007e-05
   1511, 0.000300999993, 4.99999987e-05
   1512, 0.000300999993, 5.50000004e-05
   1513, 0.000300999993, 5.99999985e-05
   1514, 0.000300999993, 6.50000002e-05
   1515, 0.000300999993, 7.00000019e-05
   1516, 0.000300999993, 7.50000036e-05
   1517, 0.000300999993, 7.9999998e-05
   1518, 0.000300999993, 8.49999997e-05
   1519, 0.000300999993, 9.00000014e-05
   1520, 0.000300999993, 9.50000031e-05
   1521, 0.000300999993, 9.99999975e-05
   1522, 0.000300999993, 0.000104999999
   1523, 0.000300999993, 0.000110000001
   1524, 0.000300999993, 0.000115000003
   1525, 0.000300999993, 0.000119999997
   1526, 0.000300999993, 0.000125000006
   1527, 0.000300999993,      0.00013
   1528, 0.000300999993, 0.000134999995
   1529, 0.000300999993, 0.000140000004
   1530, 0.000300999993, 0.000144999998
   1531, 0.000300999993, 0.000150000007
   1532, 0.000300999993, 0.000155000002
   1533, 0.000300999993, 0.000159999996
   1534, 0.000300999993, 0.000165000005
   1535, 0.000300999993, 0.000169999999
   1536, 0.000300999993, 0.000174999994
   1537, 0.000300999993, 0.000180000003
   1538, 0.000300999993, 0.000184999997
   1539, 0.000300999993, 0.000190000006
   1540, 0.000300999993, 0.000195000001
   1541, 0.00029950001, 4.99999987e-06
   1542, 0.00029950001, 9.99999975e-06
   1543, 0.00029950001, 1.49999996e-05
   1544, 0.00029950001, 1.99999995e-05
   1545, 0.00029950001, 2.49999994e-05
   1546, 0.00029950001, 2.99999992e-05
   1547, 0.00029950001, 3.50000009e-05
   1548, 0.00029950001, 3.9999999e-05
   1549, 0.00029950001, 4.50000007e-05
   1550, 0.00029950001, 4.99999987e-05
   1551, 0.00029950001, 5.50000004e-05
   1552, 0.00029950001, 5.99999985e-05
   1553, 0.00029950001, 6.50000002e-05
   1554, 0.00029950001, 7.00000019e-05
   1555, 0.00029950001, 7.50000036e-05
   1556, 0.00029950001, 7.9999998e-05
   1557, 0.00029950001, 8.49999997e-05
   1558, 0.00029950001, 9.00000014e-05
   1559, 0.00029950001, 9.50000031e-05
   1560, 0.00029950001, 9.99999975e-05
   1561, 0.00029950001, 0.000104999999
   1562, 0.00029950001, 0.000110000001
   1563, 0.00029950001, 0.000115000003
   1564, 0.00029950001, 0.000119999997
   1565, 0.00029950001, 0.000125000006
   1566, 0.00029950001,      0.00013
   1567, 0.00029950001, 0.000134999995
   1568, 0.00029950001, 0.000140000004
   1569, 0.00029950001, 0.000144999998
   1570, 0.00029950001, 0.000150000007
   1571, 0.00029950001, 0.000155000002
   1572, 0.00029950001, 0.000159999996
   1573, 0.00029950001, 0.000165000005
   1574, 0.00029950001, 0.000169999999
   1575, 0.00029950001, 0.000174999994
   1576, 0.00029950001, 0.000180000003
   1577, 0.00029950001, 0.000184999997
   1578, 0.00029950001, 0.000190000006
   1579, 0.00029950001, 0.000195000001
   1580, 0.000297999999, 4.99999987e-06
   1581, 0.000297999999, 9.99999975e-06
   1582, 0.000297999999, 1.49999996e-05
   1583, 0.000297999999, 1.99999995e-05
   1584, 0.000297999999, 2.49999994e-05
   1585, 0.000297999999, 2.99999992e-05
   1586, 0.000297999999, 3.50000009e-05
   1587, 0.000297999999, 3.9999999e-05
   1588, 0.000297999999, 4.50000007e-05
   1589, 0.000297999999, 4.99999987e-05
   1590, 0.000297999999, 5.50000004e-05
   1591, 0.000297999999, 5.99999985e-05
   1592, 0.000297999999, 6.50000002e-05
   1593, 0.000297999999, 7.00000019e-05
   1594, 0.000297999999, 7.50000036e-05
   1595, 0.000297999999, 7.9999998e-05
   1596, 0.000297999999, 8.49999997e-05
   1597, 0.000297999999, 9.00000014e-05
   1598, 0.000297999999, 9.50000031e-05
   1599, 0.000297999999, 9.99999975e-05
   1600, 0.000297999999, 0.000104999999
   1601, 0.000297999999, 0.000110000001
   1602, 0.000297999999, 0.000115000003
   1603, 0.000297999999, 0.000119999997
   1604, 0.000297999999, 0.000125000006
   1605, 0.000297999999,      0.00013
   1606, 0.000297999999, 0.000134999995
   1607, 0.000297999999, 0.000140000004
   1608, 0.000297999999, 0.000144999998
   1609, 0.000297999999, 0.000150000007
   1610, 0.000297999999, 0.000155000002
   1611, 0.000297999999, 0.000159999996
   1612, 0.000297999999, 0.000165000005
   1613, 0.000297999999, 0.000169999999
   1614, 0.000297999999, 0.000174999994
   1615, 0.000297999999, 0.000180000003
   1616, 0.000297999999, 0.000184999997
   1617, 0.000297999999, 0.000190000006
   1618, 0.000297999999, 0.000195000001
   1619, 0.000296499988, 4.99999987e-06
   1620, 0.000296499988, 9.99999975e-06
   1621, 0.000296499988, 1.49999996e-05
   1622, 0.000296499988, 1.99999995e-05
   1623, 0.000296499988, 2.49999994e-05
   1624, 0.000296499988, 2.99999992e-05
   1625, 0.000296499988, 3.50000009e-05
   1626, 0.000296499988, 3.9999999e-05
   1627, 0.000296499988, 4.50000007e-05
   1628, 0.000296499988, 4.99999987e-05
   1629, 0.000296499988, 5.50000004e-05
   1630, 0.000296499988, 5.99999985e-05
   1631, 0.000296499988, 6.50000002e-05
   1632, 0.000296499988, 7.00000019e-05
   1633, 0.000296499988, 7.50000036e-05
   1634, 0.000296499988, 7.9999998e-05
   1635, 0.000296499988, 8.49999997e-05
   1636, 0.000296499988, 9.00000014e-05
   1637, 0.000296499988, 9.50000031e-05
   1638, 0.000296499988, 9.99999975e-05
   1639, 0.000296499988, 0.000104999999
   1640, 0.000296499988, 0.000110000001
   1641, 0.000296499988, 0.000115000003
   1642, 0.000296499988, 0.000119999997
   1643, 0.000296499988, 0.000125000006
   1644, 0.000296499988,      0.00013
   1645, 0.000296499988, 0.000134999995
   1646, 0.000296499988, 0.000140000004
   1647, 0.000296499988, 0.000144999998
   1648, 0.000296499988, 0.000150000007
   1649, 0.000296499988, 0.000155000002
   1650, 0.000296499988, 0.000159999996
   1651, 0.000296499988, 0.000165000005
   1652, 0.000296499988, 0.000169999999
   1653, 0.000296499988, 0.000174999994
   1654, 0.000296499988, 0.000180000003
   1655, 0.000296499988, 0.000184999997
   1656, 0.000296499988, 0.000190000006
   1657, 0.000296499988, 0.000195000001
   1658, 0.000295000005, 4.99999987e-06
   1659, 0.000295000005, 9.99999975e-06
   1660, 0.000295000005, 1.49999996e-05
   1661, 0.000295000005, 1.99999995e-05
   1662, 0.000295000005, 2.49999994e-05
   1663, 0.000295000005, 2.99999992e-05
   1664, 0.000295000005, 3.50000009e-05
   1665, 0.000295000005, 3.9999999e-05
   1666, 0.000295000005, 4.50000007e-05
   1667, 0.000295000005, 4.99999987e-05
   1668, 0.000295000005, 5.50000004e-05
   1669, 0.000295000005, 5.99999985e-05
   1670, 0.000295000005, 6.50000002e-05
   1671, 0.000295000005, 7.00000019e-05
   1672, 0.000295000005, 7.50000036e-05
   1673, 0.000295000005, 7.9999998e-05
   1674, 0.000295000005, 8.49999997e-05
   1675, 0.000295000005, 9.00000014e-05
   1676, 0.000295000005, 9.50000031e-05
   1677, 0.000295000005, 9.99999975e-05
   1678, 0.000295000005, 0.000104999999
   1679, 0.000295000005, 0.000110000001
   1680, 0.000295000005, 0.000115000003
   1681, 0.000295000005, 0.000119999997
   1682, 0.000295000005, 0.000125000006
   1683, 0.000295000005,      0.00013
   1684, 0.000295000005, 0.000134999995
   1685, 0.000295000005, 0.000140000004
   1686, 0.000295000005, 0.000144999998
   1687, 0.000295000005, 0.000150000007
   1688, 0.000295000005, 0.000155000002
   1689, 0.000295000005, 0.000159999996
   1690, 0.000295000005, 0.000165000005
   1691, 0.000295000005, 0.000169999999
   1692, 0.000295000005, 0.000174999994
   1693, 0.000295000005, 0.000180000003
   1694, 0.000295000005, 0.000184999997
   1695, 0.000295000005, 0.000190000006
   1696, 0.000295000005, 0.000195000001
   1697, 0.000293499994, 4.99999987e-06
   1698, 0.000293499994, 9.99999975e-06
   1699, 0.000293499994, 1.49999996e-05
   1700, 0.000293499994, 1.99999995e-05
   1701, 0.000293499994, 2.49999994e-05
   1702, 0.000293499994, 2.99999992e-05
   1703, 0.000293499994, 3.50000009e-05
   1704, 0.000293499994, 3.9999999e-05
   1705, 0.000293499994, 4.50000007e-05
   1706, 0.000293499994, 4.99999987e-05
   1707, 0.000293499994, 5.50000004e-05
   1708, 0.000293499994, 5.99999985e-05
   1709, 0.000293499994, 6.50000002e-05
   1710, 0.000293499994, 7.00000019e-05
   1711, 0.000293499994, 7.50000036e-05
   1712, 0.000293499994, 7.9999998e-05
   1713, 0.000293499994, 8.49999997e-05
   1714, 0.000293499994, 9.00000014e-05
   1715, 0.000293499994, 9.50000031e-05
   1716, 0.000293499994, 9.99999975e-05
   1717, 0.000293499994, 0.000104999999
   1718, 0.000293499994, 0.000110000001
   1719, 0.000293499994, 0.000115000003
   1720, 0.000293499994, 0.000119999997
   1721, 0.000293499994, 0.000125000006
   1722, 0.000293499994,      0.00013
   1723, 0.000293499994, 0.000134999995
   1724, 0.000293499994, 0.000140000004
   1725, 0.000293499994, 0.000144999998
   1726, 0.000293499994, 0.000150000007
   1727, 0.000293499994, 0.000155000002
   1728, 0.000293499994, 0.000159999996
   1729, 0.000293499994, 0.000165000005
   1730, 0.000293499994, 0.000169999999
   1731, 0.000293499994, 0.000174999994
   1732, 0.000293499994, 0.000180000003
   1733, 0.000293499994, 0.000184999997
   1734, 0.000293499994, 0.000190000006
   1735, 0.000293499994, 0.000195000001
   1736, 0.000292000012, 4.99999987e-06
   1737, 0.000292000012, 9.99999975e-06
   1738, 0.000292000012, 1.49999996e-05
   1739, 0.000292000012, 1.99999995e-05
   1740, 0.000292000012, 2.49999994e-05
   1741, 0.000292000012, 2.99999992e-05
   1742, 0.000292000012, 3.50000009e-05
   1743, 0.000292000012, 3.9999999e-05
   1744, 0.000292000012, 4.50000007e-05
   1745, 0.000292000012, 4.99999987e-05
   1746, 0.000292000012, 5.50000004e-05
   1747, 0.000292000012, 5.99999985e-05
   1748, 0.000292000012, 6.50000002e-05
   1749, 0.000292000012, 7.00000019e-05
   1750, 0.000292000012, 7.50000036e-05
   1751, 0.000292000012, 7.9999998e-05
   1752, 0.000292000012, 8.49999997e-05
   1753, 0.000292000012, 9.00000014e-05
   1754, 0.000292000012, 9.50000031e-05
   1755, 0.000292000012, 9.99999975e-05
   1756, 0.000292000012, 0.000104999999
   1757, 0.000292000012, 0.000110000001
   1758, 0.000292000012, 0.000115000003
   1759, 0.000292000012, 0.000119999997
   1760, 0.000292000012, 0.000125000006
   1761, 0.000292000012,      0.00013
   1762, 0.000292000012, 0.000134999995
   1763, 0.000292000012, 0.000140000004
   1764, 0.000292000012, 0.000144999998
   1765, 0.000292000012, 0.000150000007
   1766, 0.000292000012, 0.000155000002
   1767, 0.000292000012, 0.000159999996
   1768, 0.000292000012, 0.000165000005
   1769, 0.000292000012, 0.000169999999
   1770, 0.000292000012, 0.000174999994
   1771, 0.000292000012, 0.000180000003
   1772, 0.000292000012, 0.000184999997
   1773, 0.000292000012, 0.000190000006
   1774, 0.000292000012, 0.000195000001
   1775,    0.0002905, 4.99999987e-06
   1776,    0.0002905, 9.99999975e-06
   1777,    0.0002905, 1.49999996e-05
   1778,    0.0002905, 1.99999995e-05
   1779,    0.0002905, 2.49999994e-05
   1780,    0.0002905, 2.99999992e-05
   1781,    0.0002905, 3.50000009e-05
   1782,    0.0002905, 3.9999999e-05
   1783,    0.0002905, 4.50000007e-05
   1784,    0.0002905, 4.99999987e-05
   1785,    0.0002905, 5.50000004e-05
   1786,    0.0002905, 5.99999985e-05
   1787,    0.0002905, 6.50000002e-05
   1788,    0.0002905, 7.00000019e-05
   1789,    0.0002905, 7.50000036e-05
   1790,    0.0002905, 7.9999998e-05
   1791,    0.0002905, 8.49999997e-05
   1792,    0.0002905, 9.00000014e-05
   1793,    0.0002905, 9.50000031e-05
   1794,    0.0002905, 9.99999975e-05
   1795,    0.0002905, 0.000104999999
   1796,    0.0002905, 0.000110000001
   1797,    0.0002905, 0.000115000003
   1798,    0.0002905, 0.000119999997
   1799,    0.0002905, 0.000125000006
   1800,    0.0002905,      0.00013
   1801,    0.0002905, 0.000134999995
   1802,    0.0002905, 0.000140000004
   1803,    0.0002905, 0.000144999998
   1804,    0.0002905, 0.000150000007
   1805,    0.0002905, 0.000155000002
   1806,    0.0002905, 0.000159999996
   1807,    0.0002905, 0.000165000005
   1808,    0.0002905, 0.000169999999
   1809,    0.0002905, 0.000174999994
   1810,    0.0002905, 0.000180000003
   1811,    0.0002905, 0.000184999997
   1812,    0.0002905, 0.000190000006
   1813,    0.0002905, 0.000195000001
   1814, 0.000288999989, 4.99999987e-06
   1815, 0.000288999989, 9.99999975e-06
   1816, 0.000288999989, 1.49999996e-05
   1817, 0.000288999989, 1.99999995e-05
   1818, 0.000288999989, 2.49999994e-05
   1819, 0.000288999989, 2.99999992e-05
   1820, 0.000288999989, 3.50000009e-05
   1821, 0.000288999989, 3.9999999e-05
   1822, 0.000288999989, 4.50000007e-05
   1823, 0.000288999989, 4.99999987e-05
   1824, 0.000288999989, 5.50000004e-05
   1825, 0.000288999989, 5.99999985e-05
   1826, 0.000288999989, 6.50000002e-05
   1827, 0.000288999989, 7.00000019e-05
   1828, 0.000288999989, 7.50000036e-05
   1829, 0.000288999989, 7.9999998e-05
   1830, 0.000288999989, 8.49999997e-05
   1831, 0.000288999989, 9.00000014e-05
   1832, 0.000288999989, 9.50000031e-05
   1833, 0.000288999989, 9.99999975e-05
   1834, 0.000288999989, 0.000104999999
   1835, 0.000288999989, 0.000110000001
   1836, 0.000288999989, 0.000115000003
   1837, 0.000288999989, 0.000119999997
   1838, 0.000288999989, 0.000125000006
   1839, 0.000288999989,      0.00013
   1840, 0.000288999989, 0.000134999995
   1841, 0.000288999989, 0.000140000004
   1842, 0.000288999989, 0.000144999998
   1843, 0.000288999989, 0.000150000007
   1844, 0.000288999989, 0.000155000002
   1845, 0.000288999989, 0.000159999996
   1846, 0.000288999989, 0.000165000005
   1847, 0.000288999989, 0.000169999999
   1848, 0.000288999989, 0.000174999994
   1849, 0.000288999989, 0.000180000003
   1850, 0.000288999989, 0.000184999997
   1851, 0.000288999989, 0.000190000006
   1852, 0.000288999989, 0.000195000001
   1853, 0.000287500006, 4.99999987e-06
   1854, 0.000287500006, 9.99999975e-06
   1855, 0.000287500006, 1.49999996e-05
   1856, 0.000287500006, 1.99999995e-05
   1857, 0.000287500006, 2.49999994e-05
   1858, 0.000287500006, 2.99999992e-05
   1859, 0.000287500006, 3.50000009e-05
   1860, 0.000287500006, 3.9999999e-05
   1861, 0.000287500006, 4.50000007e-05
   1862, 0.000287500006, 4.99999987e-05
   1863, 0.000287500006, 5.50000004e-05
   1864, 0.000287500006, 5.99999985e-05
   1865, 0.000287500006, 6.50000002e-05
   1866, 0.000287500006, 7.00000019e-05
   1867, 0.000287500006, 7.50000036e-05
   1868, 0.000287500006, 7.9999998e-05
   1869, 0.000287500006, 8.49999997e-05
   1870, 0.000287500006, 9.00000014e-05
   1871, 0.000287500006, 9.50000031e-05
   1872, 0.000287500006, 9.99999975e-05
   1873, 0.000287500006, 0.000104999999
   1874, 0.000287500006, 0.000110000001
   1875, 0.000287500006, 0.000115000003
   1876, 0.000287500006, 0.000119999997
   1877, 0.000287500006, 0.000125000006
   1878, 0.000287500006,      0.00013
   1879, 0.000287500006, 0.000134999995
   1880, 0.000287500006, 0.000140000004
   1881, 0.000287500006, 0.000144999998
   1882, 0.000287500006, 0.000150000007
   1883, 0.000287500006, 0.000155000002
   1884, 0.000287500006, 0.000159999996
   1885, 0.000287500006, 0.000165000005
   1886, 0.000287500006, 0.000169999999
   1887, 0.000287500006, 0.000174999994
   1888, 0.000287500006, 0.000180000003
   1889, 0.000287500006, 0.000184999997
   1890, 0.000287500006, 0.000190000006
   1891, 0.000287500006, 0.000195000001
   1892, 0.000285999995, 4.99999987e-06
   1893, 0.000285999995, 9.99999975e-06
   1894, 0.000285999995, 1.49999996e-05
   1895, 0.000285999995, 1.99999995e-05
   1896, 0.000285999995, 2.49999994e-05
   1897, 0.000285999995, 2.99999992e-05
   1898, 0.000285999995, 3.50000009e-05
   1899, 0.000285999995, 3.9999999e-05
   1900, 0.000285999995, 4.50000007e-05
   1901, 0.000285999995, 4.99999987e-05
   1902, 0.000285999995, 5.50000004e-05
   1903, 0.000285999995, 5.99999985e-05
   1904, 0.000285999995, 6.50000002e-05
   1905, 0.000285999995, 7.00000019e-05
   1906, 0.000285999995, 7.50000036e-05
   1907, 0.000285999995, 7.9999998e-05
   1908, 0.000285999995, 8.49999997e-05
   1909, 0.000285999995, 9.00000014e-05
   1910, 0.000285999995, 9.50000031e-05
   1911, 0.000285999995, 9.99999975e-05
   1912, 0.000285999995, 0.000104999999
   1913, 0.000285999995, 0.000110000001
   1914, 0.000285999995, 0.000115000003
   1915, 0.000285999995, 0.000119999997
   1916, 0.000285999995, 0.000125000006
   1917, 0.000285999995,      0.00013
   1918, 0.000285999995, 0.000134999995
   1919, 0.000285999995, 0.000140000004
   1920, 0.000285999995, 0.000144999998
   1921, 0.000285999995, 0.000150000007
   1922, 0.000285999995, 0.000155000002
   1923, 0.000285999995, 0.000159999996
   1924, 0.000285999995, 0.000165000005
   1925, 0.000285999995, 0.000169999999
   1926, 0.000285999995, 0.000174999994
   1927, 0.000285999995, 0.000180000003
   1928, 0.000285999995, 0.000184999997
   1929, 0.000285999995, 0.000190000006
   1930, 0.000285999995, 0.000195000001
   1931, 0.000284500013, 4.99999987e-06
   1932, 0.000284500013, 9.99999975e-06
   1933, 0.000284500013, 1.49999996e-05
   1934, 0.000284500013, 1.99999995e-05
   1935, 0.000284500013, 2.49999994e-05
   1936, 0.000284500013, 2.99999992e-05
   1937, 0.000284500013, 3.50000009e-05
   1938, 0.000284500013, 3.9999999e-05
   1939, 0.000284500013, 4.50000007e-05
   1940, 0.000284500013, 4.99999987e-05
   1941, 0.000284500013, 5.50000004e-05
   1942, 0.000284500013, 5.99999985e-05
   1943, 0.000284500013, 6.50000002e-05
   1944, 0.000284500013, 7.00000019e-05
   1945, 0.000284500013, 7.50000036e-05
   1946, 0.000284500013, 7.9999998e-05
   1947, 0.000284500013, 8.49999997e-05
   1948, 0.000284500013, 9.00000014e-05
   1949, 0.000284500013, 9.50000031e-05
   1950, 0.000284500013, 9.99999975e-05
   1951, 0.000284500013, 0.000104999999
   1952, 0.000284500013, 0.000110000001
   1953, 0.000284500013, 0.000115000003
   1954, 0.000284500013, 0.000119999997
   1955, 0.000284500013, 0.000125000006
   1956, 0.000284500013,      0.00013
   1957, 0.000284500013, 0.000134999995
   1958, 0.000284500013, 0.000140000004
   1959, 0.000284500013, 0.000144999998
   1960, 0.000284500013, 0.000150000007
   1961, 0.000284500013, 0.000155000002
   1962, 0.000284500013, 0.000159999996
   1963, 0.000284500013, 0.000165000005
   1964, 0.000284500013, 0.000169999999
   1965, 0.000284500013, 0.000174999994
   1966, 0.000284500013, 0.000180000003
   1967, 0.000284500013, 0.000184999997
   1968, 0.000284500013, 0.000190000006
   1969, 0.000284500013, 0.000195000001
   1970, 0.000283000001, 4.99999987e-06
   1971, 0.000283000001, 9.99999975e-06
   1972, 0.000283000001, 1.49999996e-05
   1973, 0.000283000001, 1.99999995e-05
   1974, 0.000283000001, 2.49999994e-05
   1975, 0.000283000001, 2.99999992e-05
   1976, 0.000283000001, 3.50000009e-05
   1977, 0.000283000001, 3.9999999e-05
   1978, 0.000283000001, 4.50000007e-05
   1979, 0.000283000001, 4.99999987e-05
   1980, 0.000283000001, 5.50000004e-05
   1981, 0.000283000001, 5.99999985e-05
   1982, 0.000283000001, 6.50000002e-05
   1983, 0.000283000001, 7.00000019e-05
   1984, 0.000283000001, 7.50000036e-05
   1985, 0.000283000001, 7.9999998e-05
   1986, 0.000283000001, 8.49999997e-05
   1987, 0.000283000001, 9.00000014e-05
   1988, 0.000283000001, 9.50000031e-05
   1989, 0.000283000001, 9.99999975e-05
   1990, 0.000283000001, 0.000104999999
   1991, 0.000283000001, 0.000110000001
   1992, 0.000283000001, 0.000115000003
   1993, 0.000283000001, 0.000119999997
   1994, 0.000283000001, 0.000125000006
   1995, 0.000283000001,      0.00013
   1996, 0.000283000001, 0.000134999995
   1997, 0.000283000001, 0.000140000004
   1998, 0.000283000001, 0.000144999998
   1999, 0.000283000001, 0.000150000007
   2000, 0.000283000001, 0.000155000002
   2001, 0.000283000001, 0.000159999996
   2002, 0.000283000001, 0.000165000005
   2003, 0.000283000001, 0.000169999999
   2004, 0.000283000001, 0.000174999994
   2005, 0.000283000001, 0.000180000003
   2006, 0.000283000001, 0.000184999997
   2007, 0.000283000001, 0.000190000006
   2008, 0.000283000001, 0.000195000001
   2009, 0.00028149999, 4.99999987e-06
   2010, 0.00028149999, 9.99999975e-06
   2011, 0.00028149999, 1.49999996e-05
   2012, 0.00028149999, 1.99999995e-05
   2013, 0.00028149999, 2.49999994e-05
   2014, 0.00028149999, 2.99999992e-05
   2015, 0.00028149999, 3.50000009e-05
   2016, 0.00028149999, 3.9999999e-05
   2017, 0.00028149999, 4.50000007e-05
   2018, 0.00028149999, 4.99999987e-05
   2019, 0.00028149999, 5.50000004e-05
   2020, 0.00028149999, 5.99999985e-05
   2021, 0.00028149999, 6.50000002e-05
   2022, 0.00028149999, 7.00000019e-05
   2023, 0.00028149999, 7.50000036e-05
   2024, 0.00028149999, 7.9999998e-05
   2025, 0.00028149999, 8.49999997e-05
   2026, 0.00028149999, 9.00000014e-05
   2027, 0.00028149999, 9.50000031e-05
   2028, 0.00028149999, 9.99999975e-05
   2029, 0.00028149999, 0.000104999999
   2030, 0.00028149999, 0.000110000001
   2031, 0.00028149999, 0.000115000003
   2032, 0.00028149999, 0.000119999997
   2033, 0.00028149999, 0.000125000006
   2034, 0.00028149999,      0.00013
   2035, 0.00028149999, 0.000134999995
   2036, 0.00028149999, 0.000140000004
   2037, 0.00028149999, 0.000144999998
   2038, 0.00028149999, 0.000150000007
   2039, 0.00028149999, 0.000155000002
   2040, 0.00028149999, 0.000159999996
   2041, 0.00028149999, 0.000165000005
   2042, 0.00028149999, 0.000169999999
   2043, 0.00028149999, 0.000174999994
   2044, 0.00028149999, 0.000180000003
   2045, 0.00028149999, 0.000184999997
   2046, 0.00028149999, 0.000190000006
   2047, 0.00028149999, 0.000195000001
   2048, 0.000280000007, 4.99999987e-06
   2049, 0.000280000007, 9.99999975e-06
   2050, 0.000280000007, 1.49999996e-05
   2051, 0.000280000007, 1.99999995e-05
   2052, 0.000280000007, 2.49999994e-05
   2053, 0.000280000007, 2.99999992e-05
   2054, 0.000280000007, 3.50000009e-05
   2055, 0.000280000007, 3.9999999e-05
   2056, 0.000280000007, 4.50000007e-05
   2057, 0.000280000007, 4.99999987e-05
   2058, 0.000280000007, 5.50000004e-05
   2059, 0.000280000007, 5.99999985e-05
   2060, 0.000280000007, 6.50000002e-05
   2061, 0.000280000007, 7.00000019e-05
   2062, 0.000280000007, 7.50000036e-05
   2063, 0.000280000007, 7.9999998e-05
   2064, 0.000280000007, 8.49999997e-05
   2065, 0.000280000007, 9.00000014e-05
   2066, 0.000280000007, 9.50000031e-05
   2067, 0.000280000007, 9.99999975e-05
   2068, 0.000280000007, 0.000104999999
   2069, 0.000280000007, 0.000110000001
   2070, 0.000280000007, 0.000115000003
   2071, 0.000280000007, 0.000119999997
   2072, 0.000280000007, 0.000125000006
   2073, 0.000280000007,      0.00013
   2074, 0.000280000007, 0.000134999995
   2075, 0.000280000007, 0.000140000004
   2076, 0.000280000007, 0.000144999998
   2077, 0.000280000007, 0.000150000007
   2078, 0.000280000007, 0.000155000002
   2079, 0.000280000007, 0.000159999996
   2080, 0.000280000007, 0.000165000005
   2081, 0.000280000007, 0.000169999999
   2082, 0.000280000007, 0.000174999994
   2083, 0.000280000007, 0.000180000003
   2084, 0.000280000007, 0.000184999997
   2085, 0.000280000007, 0.000190000006
   2086, 0.000280000007, 0.000195000001
   2087, 0.000278499996, 4.99999987e-06
   2088, 0.000278499996, 9.99999975e-06
   2089, 0.000278499996, 1.49999996e-05
   2090, 0.000278499996, 1.99999995e-05
   2091, 0.000278499996, 2.49999994e-05
   2092, 0.000278499996, 2.99999992e-05
   2093, 0.000278499996, 3.50000009e-05
   2094, 0.000278499996, 3.9999999e-05
   2095, 0.000278499996, 4.50000007e-05
   2096, 0.000278499996, 4.99999987e-05
   2097, 0.000278499996, 5.50000004e-05
   2098, 0.000278499996, 5.99999985e-05
   2099, 0.000278499996, 6.50000002e-05
   2100, 0.000278499996, 7.00000019e-05
   2101, 0.000278499996, 7.50000036e-05
   2102, 0.000278499996, 7.9999998e-05
   2103, 0.000278499996, 8.49999997e-05
   2104, 0.000278499996, 9.00000014e-05
   2105, 0.000278499996, 9.50000031e-05
   2106, 0.000278499996, 9.99999975e-05
   2107, 0.000278499996, 0.000104999999
   2108, 0.000278499996, 0.000110000001
   2109, 0.000278499996, 0.000115000003
   2110, 0.000278499996, 0.000119999997
   2111, 0.000278499996, 0.000125000006
   2112, 0.000278499996,      0.00013
   2113, 0.000278499996, 0.000134999995
   2114, 0.000278499996, 0.000140000004
   2115, 0.000278499996, 0.000144999998
   2116, 0.000278499996, 0.000150000007
   2117, 0.000278499996, 0.000155000002
   2118, 0.000278499996, 0.000159999996
   2119, 0.000278499996, 0.000165000005
   2120, 0.000278499996, 0.000169999999
   2121, 0.000278499996, 0.000174999994
   2122, 0.000278499996, 0.000180000003
   2123, 0.000278499996, 0.000184999997
   2124, 0.000278499996, 0.000190000006
   2125, 0.000278499996, 0.000195000001
   2126, 0.000277000014, 4.99999987e-06
   2127, 0.000277000014, 9.99999975e-06
   2128, 0.000277000014, 1.49999996e-05
   2129, 0.000277000014, 1.99999995e-05
   2130, 0.000277000014, 2.49999994e-05
   2131, 0.000277000014, 2.99999992e-05
   2132, 0.000277000014, 3.50000009e-05
   2133, 0.000277000014, 3.9999999e-05
   2134, 0.000277000014, 4.50000007e-05
   2135, 0.000277000014, 4.99999987e-05
   2136, 0.000277000014, 5.50000004e-05
   2137, 0.000277000014, 5.99999985e-05
   2138, 0.000277000014, 6.50000002e-05
   2139, 0.000277000014, 7.00000019e-05
   2140, 0.000277000014, 7.50000036e-05
   2141, 0.000277000014, 7.9999998e-05
   2142, 0.000277000014, 8.49999997e-05
   2143, 0.000277000014, 9.00000014e-05
   2144, 0.000277000014, 9.50000031e-05
   2145, 0.000277000014, 9.99999975e-05
   2146, 0.000277000014, 0.000104999999
   2147, 0.000277000014, 0.000110000001
   2148, 0.000277000014, 0.000115000003
   2149, 0.000277000014, 0.000119999997
   2150, 0.000277000014, 0.000125000006
   2151, 0.000277000014,      0.00013
   2152, 0.000277000014, 0.000134999995
   2153, 0.000277000014, 0.000140000004
   2154, 0.000277000014, 0.000144999998
   2155, 0.000277000014, 0.000150000007
   2156, 0.000277000014, 0.000155000002
   2157, 0.000277000014, 0.000159999996
   2158, 0.000277000014, 0.000165000005
   2159, 0.000277000014, 0.000169999999
   2160, 0.000277000014, 0.000174999994
   2161, 0.000277000014, 0.000180000003
   2162, 0.000277000014, 0.000184999997
   2163, 0.000277000014, 0.000190000006
   2164, 0.000277000014, 0.000195000001
   2165, 0.000275500002, 4.99999987e-06
   2166, 0.000275500002, 9.99999975e-06
   2167, 0.000275500002, 1.49999996e-05
   2168, 0.000275500002, 1.99999995e-05
   2169, 0.000275500002, 2.49999994e-05
   2170, 0.000275500002, 2.99999992e-05
   2171, 0.000275500002, 3.50000009e-05
   2172, 0.000275500002, 3.9999999e-05
   2173, 0.000275500002, 4.50000007e-05
   2174, 0.000275500002, 4.99999987e-05
   2175, 0.000275500002, 5.50000004e-05
   2176, 0.000275500002, 5.99999985e-05
   2177, 0.000275500002, 6.50000002e-05
   2178, 0.000275500002, 7.00000019e-05
   2179, 0.000275500002, 7.50000036e-05
   2180, 0.000275500002, 7.9999998e-05
   2181, 0.000275500002, 8.49999997e-05
   2182, 0.000275500002, 9.00000014e-05
   2183, 0.000275500002, 9.50000031e-05
   2184, 0.000275500002, 9.99999975e-05
   2185, 0.000275500002, 0.000104999999
   2186, 0.000275500002, 0.000110000001
   2187, 0.000275500002, 0.000115000003
   2188, 0.000275500002, 0.000119999997
   2189, 0.000275500002, 0.000125000006
   2190, 0.000275500002,      0.00013
   2191, 0.000275500002, 0.000134999995
   2192, 0.000275500002, 0.000140000004
   2193, 0.000275500002, 0.000144999998
   2194, 0.000275500002, 0.000150000007
   2195, 0.000275500002, 0.000155000002
   2196, 0.000275500002, 0.000159999996
   2197, 0.000275500002, 0.000165000005
   2198, 0.000275500002, 0.000169999999
   2199, 0.000275500002, 0.000174999994
   2200, 0.000275500002, 0.000180000003
   2201, 0.000275500002, 0.000184999997
   2202, 0.000275500002, 0.000190000006
   2203, 0.000275500002, 0.000195000001
   2204, 0.000273999991, 4.99999987e-06
   2205, 0.000273999991, 9.99999975e-06
   2206, 0.000273999991, 1.49999996e-05
   2207, 0.000273999991, 1.99999995e-05
   2208, 0.000273999991, 2.49999994e-05
   2209, 0.000273999991, 2.99999992e-05
   2210, 0.000273999991, 3.50000009e-05
   2211, 0.000273999991, 3.9999999e-05
   2212, 0.000273999991, 4.50000007e-05
   2213, 0.000273999991, 4.99999987e-05
   2214, 0.000273999991, 5.50000004e-05
   2215, 0.000273999991, 5.99999985e-05
   2216, 0.000273999991, 6.50000002e-05
   2217, 0.000273999991, 7.00000019e-05
   2218, 0.000273999991, 7.50000036e-05
   2219, 0.000273999991, 7.9999998e-05
   2220, 0.000273999991, 8.49999997e-05
   2221, 0.000273999991, 9.00000014e-05
   2222, 0.000273999991, 9.50000031e-05
   2223, 0.000273999991, 9.99999975e-05
   2224, 0.000273999991, 0.000104999999
   2225, 0.000273999991, 0.000110000001
   2226, 0.000273999991, 0.000115000003
   2227, 0.000273999991, 0.000119999997
   2228, 0.000273999991, 0.000125000006
   2229, 0.000273999991,      0.00013
   2230, 0.000273999991, 0.000134999995
   2231, 0.000273999991, 0.000140000004
   2232, 0.000273999991, 0.000144999998
   2233, 0.000273999991, 0.000150000007
   2234, 0.000273999991, 0.000155000002
   2235, 0.000273999991, 0.000159999996
   2236, 0.000273999991, 0.000165000005
   2237, 0.000273999991, 0.000169999999
   2238, 0.000273999991, 0.000174999994
   2239, 0.000273999991, 0.000180000003
   2240, 0.000273999991, 0.000184999997
   2241, 0.000273999991, 0.000190000006
   2242, 0.000273999991, 0.000195000001
   2243, 0.000272500009, 4.99999987e-06
   2244, 0.000272500009, 9.99999975e-06
   2245, 0.000272500009, 1.49999996e-05
   2246, 0.000272500009, 1.99999995e-05
   2247, 0.000272500009, 2.49999994e-05
   2248, 0.000272500009, 2.99999992e-05
   2249, 0.000272500009, 3.50000009e-05
   2250, 0.000272500009, 3.9999999e-05
   2251, 0.000272500009, 4.50000007e-05
   2252, 0.000272500009, 4.99999987e-05
   2253, 0.000272500009, 5.50000004e-05
   2254, 0.000272500009, 5.99999985e-05
   2255, 0.000272500009, 6.50000002e-05
   2256, 0.000272500009, 7.00000019e-05
   2257, 0.000272500009, 7.50000036e-05
   2258, 0.000272500009, 7.9999998e-05
   2259, 0.000272500009, 8.49999997e-05
   2260, 0.000272500009, 9.00000014e-05
   2261, 0.000272500009, 9.50000031e-05
   2262, 0.000272500009, 9.99999975e-05
   2263, 0.000272500009, 0.000104999999
   2264, 0.000272500009, 0.000110000001
   2265, 0.000272500009, 0.000115000003
   2266, 0.000272500009, 0.000119999997
   2267, 0.000272500009, 0.000125000006
   2268, 0.000272500009,      0.00013
   2269, 0.000272500009, 0.000134999995
   2270, 0.000272500009, 0.000140000004
   2271, 0.000272500009, 0.000144999998
   2272, 0.000272500009, 0.000150000007
   2273, 0.000272500009, 0.000155000002
   2274, 0.000272500009, 0.000159999996
   2275, 0.000272500009, 0.000165000005
   2276, 0.000272500009, 0.000169999999
   2277, 0.000272500009, 0.000174999994
   2278, 0.000272500009, 0.000180000003
   2279, 0.000272500009, 0.000184999997
   2280, 0.000272500009, 0.000190000006
   2281, 0.000272500009, 0.000195000001
   2282, 0.000270999997, 4.99999987e-06
   2283, 0.000270999997, 9.99999975e-06
   2284, 0.000270999997, 1.49999996e-05
   2285, 0.000270999997, 1.99999995e-05
   2286, 0.000270999997, 2.49999994e-05
   2287, 0.000270999997, 2.99999992e-05
   2288, 0.000270999997, 3.50000009e-05
   2289, 0.000270999997, 3.9999999e-05
   2290, 0.000270999997, 4.50000007e-05
   2291, 0.000270999997, 4.99999987e-05
   2292, 0.000270999997, 5.50000004e-05
   2293, 0.000270999997, 5.99999985e-05
   2294, 0.000270999997, 6.50000002e-05
   2295, 0.000270999997, 7.00000019e-05
   2296, 0.000270999997, 7.50000036e-05
   2297, 0.000270999997, 7.9999998e-05
   2298, 0.000270999997, 8.49999997e-05
   2299, 0.000270999997, 9.00000014e-05
   2300, 0.000270999997, 9.50000031e-05
   2301, 0.000270999997, 9.99999975e-05
   2302, 0.000270999997, 0.000104999999
   2303, 0.000270999997, 0.000110000001
   2304, 0.000270999997, 0.000115000003
   2305, 0.000270999997, 0.000119999997
   2306, 0.000270999997, 0.000125000006
   2307, 0.000270999997,      0.00013
   2308, 0.000270999997, 0.000134999995
   2309, 0.000270999997, 0.000140000004
   2310, 0.000270999997, 0.000144999998
   2311, 0.000270999997, 0.000150000007
   2312, 0.000270999997, 0.000155000002
   2313, 0.000270999997, 0.000159999996
   2314, 0.000270999997, 0.000165000005
   2315, 0.000270999997, 0.000169999999
   2316, 0.000270999997, 0.000174999994
   2317, 0.000270999997, 0.000180000003
   2318, 0.000270999997, 0.000184999997
   2319, 0.000270999997, 0.000190000006
   2320, 0.000270999997, 0.000195000001
   2321, 0.000269499986, 4.99999987e-06
   2322, 0.000269499986, 9.99999975e-06
   2323, 0.000269499986, 1.49999996e-05
   2324, 0.000269499986, 1.99999995e-05
   2325, 0.000269499986, 2.49999994e-05
   2326, 0.000269499986, 2.99999992e-05
   2327, 0.000269499986, 3.50000009e-05
   2328, 0.000269499986, 3.9999999e-05
   2329, 0.000269499986, 4.50000007e-05
   2330, 0.000269499986, 4.99999987e-05
   2331, 0.000269499986, 5.50000004e-05
   2332, 0.000269499986, 5.99999985e-05
   2333, 0.000269499986, 6.50000002e-05
   2334, 0.000269499986, 7.00000019e-05
   2335, 0.000269499986, 7.50000036e-05
   2336, 0.000269499986, 7.9999998e-05
   2337, 0.000269499986, 8.49999997e-05
   2338, 0.000269499986, 9.00000014e-05
   2339, 0.000269499986, 9.50000031e-05
   2340, 0.000269499986, 9.99999975e-05
   2341, 0.000269499986, 0.000104999999
   2342, 0.000269499986, 0.000110000001
   2343, 0.000269499986, 0.000115000003
   2344, 0.000269499986, 0.000119999997
   2345, 0.000269499986, 0.000125000006
   2346, 0.000269499986,      0.00013
   2347, 0.000269499986, 0.000134999995
   2348, 0.000269499986, 0.000140000004
   2349, 0.000269499986, 0.000144999998
   2350, 0.000269499986, 0.000150000007
   2351, 0.000269499986, 0.000155000002
   2352, 0.000269499986, 0.000159999996
   2353, 0.000269499986, 0.000165000005
   2354, 0.000269499986, 0.000169999999
   2355, 0.000269499986, 0.000174999994
   2356, 0.000269499986, 0.000180000003
   2357, 0.000269499986, 0.000184999997
   2358, 0.000269499986, 0.000190000006
   2359, 0.000269499986, 0.000195000001
   2360, 0.000268000003, 4.99999987e-06
   2361, 0.000268000003, 9.99999975e-06
   2362, 0.000268000003, 1.49999996e-05
   2363, 0.000268000003, 1.99999995e-05
   2364, 0.000268000003, 2.49999994e-05
   2365, 0.000268000003, 2.99999992e-05
   2366, 0.000268000003, 3.50000009e-05
   2367, 0.000268000003, 3.9999999e-05
   2368, 0.000268000003, 4.50000007e-05
   2369, 0.000268000003, 4.99999987e-05
   2370, 0.000268000003, 5.50000004e-05
   2371, 0.000268000003, 5.99999985e-05
   2372, 0.000268000003, 6.50000002e-05
   2373, 0.000268000003, 7.00000019e-05
   2374, 0.000268000003, 7.50000036e-05
   2375, 0.000268000003, 7.9999998e-05
   2376, 0.000268000003, 8.49999997e-05
   2377, 0.000268000003, 9.00000014e-05
   2378, 0.000268000003, 9.50000031e-05
   2379, 0.000268000003, 9.99999975e-05
   2380, 0.000268000003, 0.000104999999
   2381, 0.000268000003, 0.000110000001
   2382, 0.000268000003, 0.000115000003
   2383, 0.000268000003, 0.000119999997
   2384, 0.000268000003, 0.000125000006
   2385, 0.000268000003,      0.00013
   2386, 0.000268000003, 0.000134999995
   2387, 0.000268000003, 0.000140000004
   2388, 0.000268000003, 0.000144999998
   2389, 0.000268000003, 0.000150000007
   2390, 0.000268000003, 0.000155000002
   2391, 0.000268000003, 0.000159999996
   2392, 0.000268000003, 0.000165000005
   2393, 0.000268000003, 0.000169999999
   2394, 0.000268000003, 0.000174999994
   2395, 0.000268000003, 0.000180000003
   2396, 0.000268000003, 0.000184999997
   2397, 0.000268000003, 0.000190000006
   2398, 0.000268000003, 0.000195000001
   2399, 0.000266499992, 4.99999987e-06
   2400, 0.000266499992, 9.99999975e-06
   2401, 0.000266499992, 1.49999996e-05
   2402, 0.000266499992, 1.99999995e-05
   2403, 0.000266499992, 2.49999994e-05
   2404, 0.000266499992, 2.99999992e-05
   2405, 0.000266499992, 3.50000009e-05
   2406, 0.000266499992, 3.9999999e-05
   2407, 0.000266499992, 4.50000007e-05
   2408, 0.000266499992, 4.99999987e-05
   2409, 0.000266499992, 5.50000004e-05
   2410, 0.000266499992, 5.99999985e-05
   2411, 0.000266499992, 6.50000002e-05
   2412, 0.000266499992, 7.00000019e-05
   2413, 0.000266499992, 7.50000036e-05
   2414, 0.000266499992, 7.9999998e-05
   2415, 0.000266499992, 8.49999997e-05
   2416, 0.000266499992, 9.00000014e-05
   2417, 0.000266499992, 9.50000031e-05
   2418, 0.000266499992, 9.99999975e-05
   2419, 0.000266499992, 0.000104999999
   2420, 0.000266499992, 0.000110000001
   2421, 0.000266499992, 0.000115000003
   2422, 0.000266499992, 0.000119999997
   2423, 0.000266499992, 0.000125000006
   2424, 0.000266499992,      0.00013
   2425, 0.000266499992, 0.000134999995
   2426, 0.000266499992, 0.000140000004
   2427, 0.000266499992, 0.000144999998
   2428, 0.000266499992, 0.000150000007
   2429, 0.000266499992, 0.000155000002
   2430, 0.000266499992, 0.000159999996
   2431, 0.000266499992, 0.000165000005
   2432, 0.000266499992, 0.000169999999
   2433, 0.000266499992, 0.000174999994
   2434, 0.000266499992, 0.000180000003
   2435, 0.000266499992, 0.000184999997
   2436, 0.000266499992, 0.000190000006
   2437, 0.000266499992, 0.000195000001
   2438, 0.00026500001, 4.99999987e-06
   2439, 0.00026500001, 9.99999975e-06
   2440, 0.00026500001, 1.49999996e-05
   2441, 0.00026500001, 1.99999995e-05
   2442, 0.00026500001, 2.49999994e-05
   2443, 0.00026500001, 2.99999992e-05
   2444, 0.00026500001, 3.50000009e-05
   2445, 0.00026500001, 3.9999999e-05
   2446, 0.00026500001, 4.50000007e-05
   2447, 0.00026500001, 4.99999987e-05
   2448, 0.00026500001, 5.50000004e-05
   2449, 0.00026500001, 5.99999985e-05
   2450, 0.00026500001, 6.50000002e-05
   2451, 0.00026500001, 7.00000019e-05
   2452, 0.00026500001, 7.50000036e-05
   2453, 0.00026500001, 7.9999998e-05
   2454, 0.00026500001, 8.49999997e-05
   2455, 0.00026500001, 9.00000014e-05
   2456, 0.00026500001, 9.50000031e-05
   2457, 0.00026500001, 9.99999975e-05
   2458, 0.00026500001, 0.000104999999
   2459, 0.00026500001, 0.000110000001
   2460, 0.00026500001, 0.000115000003
   2461, 0.00026500001, 0.000119999997
   2462, 0.00026500001, 0.000125000006
   2463, 0.00026500001,      0.00013
   2464, 0.00026500001, 0.000134999995
   2465, 0.00026500001, 0.000140000004
   2466, 0.00026500001, 0.000144999998
   2467, 0.00026500001, 0.000150000007
   2468, 0.00026500001, 0.000155000002
   2469, 0.00026500001, 0.000159999996
   2470, 0.00026500001, 0.000165000005
   2471, 0.00026500001, 0.000169999999
   2472, 0.00026500001, 0.000174999994
   2473, 0.00026500001, 0.000180000003
   2474, 0.00026500001, 0.000184999997
   2475, 0.00026500001, 0.000190000006
   2476, 0.00026500001, 0.000195000001
   2477, 0.000263499998, 4.99999987e-06
   2478, 0.000263499998, 9.99999975e-06
   2479, 0.000263499998, 1.49999996e-05
   2480, 0.000263499998, 1.99999995e-05
   2481, 0.000263499998, 2.49999994e-05
   2482, 0.000263499998, 2.99999992e-05
   2483, 0.000263499998, 3.50000009e-05
   2484, 0.000263499998, 3.9999999e-05
   2485, 0.000263499998, 4.50000007e-05
   2486, 0.000263499998, 4.99999987e-05
   2487, 0.000263499998, 5.50000004e-05
   2488, 0.000263499998, 5.99999985e-05
   2489, 0.000263499998, 6.50000002e-05
   2490, 0.000263499998, 7.00000019e-05
   2491, 0.000263499998, 7.50000036e-05
   2492, 0.000263499998, 7.9999998e-05
   2493, 0.000263499998, 8.49999997e-05
   2494, 0.000263499998, 9.00000014e-05
   2495, 0.000263499998, 9.50000031e-05
   2496, 0.000263499998, 9.99999975e-05
   2497, 0.000263499998, 0.000104999999
   2498, 0.000263499998, 0.000110000001
   2499, 0.000263499998, 0.000115000003
   2500, 0.000263499998, 0.000119999997
   2501, 0.000263499998, 0.000125000006
   2502, 0.000263499998,      0.00013
   2503, 0.000263499998, 0.000134999995
   2504, 0.000263499998, 0.000140000004
   2505, 0.000263499998, 0.000144999998
   2506, 0.000263499998, 0.000150000007
   2507, 0.000263499998, 0.000155000002
   2508, 0.000263499998, 0.000159999996
   2509, 0.000263499998, 0.000165000005
   2510, 0.000263499998, 0.000169999999
   2511, 0.000263499998, 0.000174999994
   2512, 0.000263499998, 0.000180000003
   2513, 0.000263499998, 0.000184999997
   2514, 0.000263499998, 0.000190000006
   2515, 0.000263499998, 0.000195000001
   2516, 0.000261999987, 4.99999987e-06
   2517, 0.000261999987, 9.99999975e-06
   2518, 0.000261999987, 1.49999996e-05
   2519, 0.000261999987, 1.99999995e-05
   2520, 0.000261999987, 2.49999994e-05
   2521, 0.000261999987, 2.99999992e-05
   2522, 0.000261999987, 3.50000009e-05
   2523, 0.000261999987, 3.9999999e-05
   2524, 0.000261999987, 4.50000007e-05
   2525, 0.000261999987, 4.99999987e-05
   2526, 0.000261999987, 5.50000004e-05
   2527, 0.000261999987, 5.99999985e-05
   2528, 0.000261999987, 6.50000002e-05
   2529, 0.000261999987, 7.00000019e-05
   2530, 0.000261999987, 7.50000036e-05
   2531, 0.000261999987, 7.9999998e-05
   2532, 0.000261999987, 8.49999997e-05
   2533, 0.000261999987, 9.00000014e-05
   2534, 0.000261999987, 9.50000031e-05
   2535, 0.000261999987, 9.99999975e-05
   2536, 0.000261999987, 0.000104999999
   2537, 0.000261999987, 0.000110000001
   2538, 0.000261999987, 0.000115000003
   2539, 0.000261999987, 0.000119999997
   2540, 0.000261999987, 0.000125000006
   2541, 0.000261999987,      0.00013
   2542, 0.000261999987, 0.000134999995
   2543, 0.000261999987, 0.000140000004
   2544, 0.000261999987, 0.000144999998
   2545, 0.000261999987, 0.000150000007
   2546, 0.000261999987, 0.000155000002
   2547, 0.000261999987, 0.000159999996
   2548, 0.000261999987, 0.000165000005
   2549, 0.000261999987, 0.000169999999
   2550, 0.000261999987, 0.000174999994
   2551, 0.000261999987, 0.000180000003
   2552, 0.000261999987, 0.000184999997
   2553, 0.000261999987, 0.000190000006
   2554, 0.000261999987, 0.000195000001
   2555, 0.000260500005, 4.99999987e-06
   2556, 0.000260500005, 9.99999975e-06
   2557, 0.000260500005, 1.49999996e-05
   2558, 0.000260500005, 1.99999995e-05
   2559, 0.000260500005, 2.49999994e-05
   2560, 0.000260500005, 2.99999992e-05
   2561, 0.000260500005, 3.50000009e-05
   2562, 0.000260500005, 3.9999999e-05
   2563, 0.000260500005, 4.50000007e-05
   2564, 0.000260500005, 4.99999987e-05
   2565, 0.000260500005, 5.50000004e-05
   2566, 0.000260500005, 5.99999985e-05
   2567, 0.000260500005, 6.50000002e-05
   2568, 0.000260500005, 7.00000019e-05
   2569, 0.000260500005, 7.50000036e-05
   2570, 0.000260500005, 7.9999998e-05
   2571, 0.000260500005, 8.49999997e-05
   2572, 0.000260500005, 9.00000014e-05
   2573, 0.000260500005, 9.50000031e-05
   2574, 0.000260500005, 9.99999975e-05
   2575, 0.000260500005, 0.000104999999
   2576, 0.000260500005, 0.000110000001
   2577, 0.000260500005, 0.000115000003
   2578, 0.000260500005, 0.000119999997
   2579, 0.000260500005, 0.000125000006
   2580, 0.000260500005,      0.00013
   2581, 0.000260500005, 0.000134999995
   2582, 0.000260500005, 0.000140000004
   2583, 0.000260500005, 0.000144999998
   2584, 0.000260500005, 0.000150000007
   2585, 0.000260500005, 0.000155000002
   2586, 0.000260500005, 0.000159999996
   2587, 0.000260500005, 0.000165000005
   2588, 0.000260500005, 0.000169999999
   2589, 0.000260500005, 0.000174999994
   2590, 0.000260500005, 0.000180000003
   2591, 0.000260500005, 0.000184999997
   2592, 0.000260500005, 0.000190000006
   2593, 0.000260500005, 0.000195000001
   2594, 0.000258999993, 4.99999987e-06
   2595, 0.000258999993, 9.99999975e-06
   2596, 0.000258999993, 1.49999996e-05
   2597, 0.000258999993, 1.99999995e-05
   2598, 0.000258999993, 2.49999994e-05
   2599, 0.000258999993, 2.99999992e-05
   2600, 0.000258999993, 3.50000009e-05
   2601, 0.000258999993, 3.9999999e-05
   2602, 0.000258999993, 4.50000007e-05
   2603, 0.000258999993, 4.99999987e-05
   2604, 0.000258999993, 5.50000004e-05
   2605, 0.000258999993, 5.99999985e-05
   2606, 0.000258999993, 6.50000002e-05
   2607, 0.000258999993, 7.00000019e-05
   2608, 0.000258999993, 7.50000036e-05
   2609, 0.000258999993, 7.9999998e-05
   2610, 0.000258999993, 8.49999997e-05
   2611, 0.000258999993, 9.00000014e-05
   2612, 0.000258999993, 9.50000031e-05
   2613, 0.000258999993, 9.99999975e-05
   2614, 0.000258999993, 0.000104999999
   2615, 0.000258999993, 0.000110000001
   2616, 0.000258999993, 0.000115000003
   2617, 0.000258999993, 0.000119999997
   2618, 0.000258999993, 0.000125000006
   2619, 0.000258999993,      0.00013
   2620, 0.000258999993, 0.000134999995
   2621, 0.000258999993, 0.000140000004
   2622, 0.000258999993, 0.000144999998
   2623, 0.000258999993, 0.000150000007
   2624, 0.000258999993, 0.000155000002
   2625, 0.000258999993, 0.000159999996
   2626, 0.000258999993, 0.000165000005
   2627, 0.000258999993, 0.000169999999
   2628, 0.000258999993, 0.000174999994
   2629, 0.000258999993, 0.000180000003
   2630, 0.000258999993, 0.000184999997
   2631, 0.000258999993, 0.000190000006
   2632, 0.000258999993, 0.000195000001
   2633, 0.000257500011, 4.99999987e-06
   2634, 0.000257500011, 9.99999975e-06
   2635, 0.000257500011, 1.49999996e-05
   2636, 0.000257500011, 1.99999995e-05
   2637, 0.000257500011, 2.49999994e-05
   2638, 0.000257500011, 2.99999992e-05
   2639, 0.000257500011, 3.50000009e-05
   2640, 0.000257500011, 3.9999999e-05
   2641, 0.000257500011, 4.50000007e-05
   2642, 0.000257500011, 4.99999987e-05
   2643, 0.000257500011, 5.50000004e-05
   2644, 0.000257500011, 5.99999985e-05
   2645, 0.000257500011, 6.50000002e-05
   2646, 0.000257500011, 7.00000019e-05
   2647, 0.000257500011, 7.50000036e-05
   2648, 0.000257500011, 7.9999998e-05
   2649, 0.000257500011, 8.49999997e-05
   2650, 0.000257500011, 9.00000014e-05
   2651, 0.000257500011, 9.50000031e-05
   2652, 0.000257500011, 9.99999975e-05
   2653, 0.000257500011, 0.000104999999
   2654, 0.000257500011, 0.000110000001
   2655, 0.000257500011, 0.000115000003
   2656, 0.000257500011, 0.000119999997
   2657, 0.000257500011, 0.000125000006
   2658, 0.000257500011,      0.00013
   2659, 0.000257500011, 0.000134999995
   2660, 0.000257500011, 0.000140000004
   2661, 0.000257500011, 0.000144999998
   2662, 0.000257500011, 0.000150000007
   2663, 0.000257500011, 0.000155000002
   2664, 0.000257500011, 0.000159999996
   2665, 0.000257500011, 0.000165000005
   2666, 0.000257500011, 0.000169999999
   2667, 0.000257500011, 0.000174999994
   2668, 0.000257500011, 0.000180000003
   2669, 0.000257500011, 0.000184999997
   2670, 0.000257500011, 0.000190000006
   2671, 0.000257500011, 0.000195000001
   2672, 0.000255999999, 4.99999987e-06
   2673, 0.000255999999, 9.99999975e-06
   2674, 0.000255999999, 1.49999996e-05
   2675, 0.000255999999, 1.99999995e-05
   2676, 0.000255999999, 2.49999994e-05
   2677, 0.000255999999, 2.99999992e-05
   2678, 0.000255999999, 3.50000009e-05
   2679, 0.000255999999, 3.9999999e-05
   2680, 0.000255999999, 4.50000007e-05
   2681, 0.000255999999, 4.99999987e-05
   2682, 0.000255999999, 5.50000004e-05
   2683, 0.000255999999, 5.99999985e-05
   2684, 0.000255999999, 6.50000002e-05
   2685, 0.000255999999, 7.00000019e-05
   2686, 0.000255999999, 7.50000036e-05
   2687, 0.000255999999, 7.9999998e-05
   2688, 0.000255999999, 8.49999997e-05
   2689, 0.000255999999, 9.00000014e-05
   2690, 0.000255999999, 9.50000031e-05
   2691, 0.000255999999, 9.99999975e-05
   2692, 0.000255999999, 0.000104999999
   2693, 0.000255999999, 0.000110000001
   2694, 0.000255999999, 0.000115000003
   2695, 0.000255999999, 0.000119999997
   2696, 0.000255999999, 0.000125000006
   2697, 0.000255999999,      0.00013
   2698, 0.000255999999, 0.000134999995
   2699, 0.000255999999, 0.000140000004
   2700, 0.000255999999, 0.000144999998
   2701, 0.000255999999, 0.000150000007
   2702, 0.000255999999, 0.000155000002
   2703, 0.000255999999, 0.000159999996
   2704, 0.000255999999, 0.000165000005
   2705, 0.000255999999, 0.000169999999
   2706, 0.000255999999, 0.000174999994
   2707, 0.000255999999, 0.000180000003
   2708, 0.000255999999, 0.000184999997
   2709, 0.000255999999, 0.000190000006
   2710, 0.000255999999, 0.000195000001
   2711, 0.000254499988, 4.99999987e-06
   2712, 0.000254499988, 9.99999975e-06
   2713, 0.000254499988, 1.49999996e-05
   2714, 0.000254499988, 1.99999995e-05
   2715, 0.000254499988, 2.49999994e-05
   2716, 0.000254499988, 2.99999992e-05
   2717, 0.000254499988, 3.50000009e-05
   2718, 0.000254499988, 3.9999999e-05
   2719, 0.000254499988, 4.50000007e-05
   2720, 0.000254499988, 4.99999987e-05
   2721, 0.000254499988, 5.50000004e-05
   2722, 0.000254499988, 5.99999985e-05
   2723, 0.000254499988, 6.50000002e-05
   2724, 0.000254499988, 7.00000019e-05
   2725, 0.000254499988, 7.50000036e-05
   2726, 0.000254499988, 7.9999998e-05
   2727, 0.000254499988, 8.49999997e-05
   2728, 0.000254499988, 9.00000014e-05
   2729, 0.000254499988, 9.50000031e-05
   2730, 0.000254499988, 9.99999975e-05
   2731, 0.000254499988, 0.000104999999
   2732, 0.000254499988, 0.000110000001
   2733, 0.000254499988, 0.000115000003
   2734, 0.000254499988, 0.000119999997
   2735, 0.000254499988, 0.000125000006
   2736, 0.000254499988,      0.00013
   2737, 0.000254499988, 0.000134999995
   2738, 0.000254499988, 0.000140000004
   2739, 0.000254499988, 0.000144999998
   2740, 0.000254499988, 0.000150000007
   2741, 0.000254499988, 0.000155000002
   2742, 0.000254499988, 0.000159999996
   2743, 0.000254499988, 0.000165000005
   2744, 0.000254499988, 0.000169999999
   2745, 0.000254499988, 0.000174999994
   2746, 0.000254499988, 0.000180000003
   2747, 0.000254499988, 0.000184999997
   2748, 0.000254499988, 0.000190000006
   2749, 0.000254499988, 0.000195000001
   2750, 0.000253000006, 4.99999987e-06
   2751, 0.000253000006, 9.99999975e-06
   2752, 0.000253000006, 1.49999996e-05
   2753, 0.000253000006, 1.99999995e-05
   2754, 0.000253000006, 2.49999994e-05
   2755, 0.000253000006, 2.99999992e-05
   2756, 0.000253000006, 3.50000009e-05
   2757, 0.000253000006, 3.9999999e-05
   2758, 0.000253000006, 4.50000007e-05
   2759, 0.000253000006, 4.99999987e-05
   2760, 0.000253000006, 5.50000004e-05
   2761, 0.000253000006, 5.99999985e-05
   2762, 0.000253000006, 6.50000002e-05
   2763, 0.000253000006, 7.00000019e-05
   2764, 0.000253000006, 7.50000036e-05
   2765, 0.000253000006, 7.9999998e-05
   2766, 0.000253000006, 8.49999997e-05
   2767, 0.000253000006, 9.00000014e-05
   2768, 0.000253000006, 9.50000031e-05
   2769, 0.000253000006, 9.99999975e-05
   2770, 0.000253000006, 0.000104999999
   2771, 0.000253000006, 0.000110000001
   2772, 0.000253000006, 0.000115000003
   2773, 0.000253000006, 0.000119999997
   2774, 0.000253000006, 0.000125000006
   2775, 0.000253000006,      0.00013
   2776, 0.000253000006, 0.000134999995
   2777, 0.000253000006, 0.000140000004
   2778, 0.000253000006, 0.000144999998
   2779, 0.000253000006, 0.000150000007
   2780, 0.000253000006, 0.000155000002
   2781, 0.000253000006, 0.000159999996
   2782, 0.000253000006, 0.000165000005
   2783, 0.000253000006, 0.000169999999
   2784, 0.000253000006, 0.000174999994
   2785, 0.000253000006, 0.000180000003
   2786, 0.000253000006, 0.000184999997
   2787, 0.000253000006, 0.000190000006
   2788, 0.000253000006, 0.000195000001
   2789, 0.000251499994, 4.99999987e-06
   2790, 0.000251499994, 9.99999975e-06
   2791, 0.000251499994, 1.49999996e-05
   2792, 0.000251499994, 1.99999995e-05
   2793, 0.000251499994, 2.49999994e-05
   2794, 0.000251499994, 2.99999992e-05
   2795, 0.000251499994, 3.50000009e-05
   2796, 0.000251499994, 3.9999999e-05
   2797, 0.000251499994, 4.50000007e-05
   2798, 0.000251499994, 4.99999987e-05
   2799, 0.000251499994, 5.50000004e-05
   2800, 0.000251499994, 5.99999985e-05
   2801, 0.000251499994, 6.50000002e-05
   2802, 0.000251499994, 7.00000019e-05
   2803, 0.000251499994, 7.50000036e-05
   2804, 0.000251499994, 7.9999998e-05
   2805, 0.000251499994, 8.49999997e-05
   2806, 0.000251499994, 9.00000014e-05
   2807, 0.000251499994, 9.50000031e-05
   2808, 0.000251499994, 9.99999975e-05
   2809, 0.000251499994, 0.000104999999
   2810, 0.000251499994, 0.000110000001
   2811, 0.000251499994, 0.000115000003
   2812, 0.000251499994, 0.000119999997
   2813, 0.000251499994, 0.000125000006
   2814, 0.000251499994,      0.00013
   2815, 0.000251499994, 0.000134999995
   2816, 0.000251499994, 0.000140000004
   2817, 0.000251499994, 0.000144999998
   2818, 0.000251499994, 0.000150000007
   2819, 0.000251499994, 0.000155000002
   2820, 0.000251499994, 0.000159999996
   2821, 0.000251499994, 0.000165000005
   2822, 0.000251499994, 0.000169999999
   2823, 0.000251499994, 0.000174999994
   2824, 0.000251499994, 0.000180000003
   2825, 0.000251499994, 0.000184999997
   2826, 0.000251499994, 0.000190000006
   2827, 0.000251499994, 0.000195000001
   2828, 0.000250000012, 4.99999987e-06
   2829, 0.000250000012, 9.99999975e-06
   2830, 0.000250000012, 1.49999996e-05
   2831, 0.000250000012, 1.99999995e-05
   2832, 0.000250000012, 2.49999994e-05
   2833, 0.000250000012, 2.99999992e-05
   2834, 0.000250000012, 3.50000009e-05
   2835, 0.000250000012, 3.9999999e-05
   2836, 0.000250000012, 4.50000007e-05
   2837, 0.000250000012, 4.99999987e-05
   2838, 0.000250000012, 5.50000004e-05
   2839, 0.000250000012, 5.99999985e-05
   2840, 0.000250000012, 6.50000002e-05
   2841, 0.000250000012, 7.00000019e-05
   2842, 0.000250000012, 7.50000036e-05
   2843, 0.000250000012, 7.9999998e-05
   2844, 0.000250000012, 8.49999997e-05
   2845, 0.000250000012, 9.00000014e-05
   2846, 0.000250000012, 9.50000031e-05
   2847, 0.000250000012, 9.99999975e-05
   2848, 0.000250000012, 0.000104999999
   2849, 0.000250000012, 0.000110000001
   2850, 0.000250000012, 0.000115000003
   2851, 0.000250000012, 0.000119999997
   2852, 0.000250000012, 0.000125000006
   2853, 0.000250000012,      0.00013
   2854, 0.000250000012, 0.000134999995
   2855, 0.000250000012, 0.000140000004
   2856, 0.000250000012, 0.000144999998
   2857, 0.000250000012, 0.000150000007
   2858, 0.000250000012, 0.000155000002
   2859, 0.000250000012, 0.000159999996
   2860, 0.000250000012, 0.000165000005
   2861, 0.000250000012, 0.000169999999
   2862, 0.000250000012, 0.000174999994
   2863, 0.000250000012, 0.000180000003
   2864, 0.000250000012, 0.000184999997
   2865, 0.000250000012, 0.000190000006
   2866, 0.000250000012, 0.000195000001
   2867,    0.0002485, 4.99999987e-06
   2868,    0.0002485, 9.99999975e-06
   2869,    0.0002485, 1.49999996e-05
   2870,    0.0002485, 1.99999995e-05
   2871,    0.0002485, 2.49999994e-05
   2872,    0.0002485, 2.99999992e-05
   2873,    0.0002485, 3.50000009e-05
   2874,    0.0002485, 3.9999999e-05
   2875,    0.0002485, 4.50000007e-05
   2876,    0.0002485, 4.99999987e-05
   2877,    0.0002485, 5.50000004e-05
   2878,    0.0002485, 5.99999985e-05
   2879,    0.0002485, 6.50000002e-05
   2880,    0.0002485, 7.00000019e-05
   2881,    0.0002485, 7.50000036e-05
   2882,    0.0002485, 7.9999998e-05
   2883,    0.0002485, 8.49999997e-05
   2884,    0.0002485, 9.00000014e-05
   2885,    0.0002485, 9.50000031e-05
   2886,    0.0002485, 9.99999975e-05
   2887,    0.0002485, 0.000104999999
   2888,    0.0002485, 0.000110000001
   2889,    0.0002485, 0.000115000003
   2890,    0.0002485, 0.000119999997
   2891,    0.0002485, 0.000125000006
   2892,    0.0002485,      0.00013
   2893,    0.0002485, 0.000134999995
   2894,    0.0002485, 0.000140000004
   2895,    0.0002485, 0.000144999998
   2896,    0.0002485, 0.000150000007
   2897,    0.0002485, 0.000155000002
   2898,    0.0002485, 0.000159999996
   2899,    0.0002485, 0.000165000005
   2900,    0.0002485, 0.000169999999
   2901,    0.0002485, 0.000174999994
   2902,    0.0002485, 0.000180000003
   2903,    0.0002485, 0.000184999997
   2904,    0.0002485, 0.000190000006
   2905,    0.0002485, 0.000195000001
   2906, 0.000246999989, 4.99999987e-06
   2907, 0.000246999989, 9.99999975e-06
   2908, 0.000246999989, 1.49999996e-05
   2909, 0.000246999989, 1.99999995e-05
   2910, 0.000246999989, 2.49999994e-05
   2911, 0.000246999989, 2.99999992e-05
   2912, 0.000246999989, 3.50000009e-05
   2913, 0.000246999989, 3.9999999e-05
   2914, 0.000246999989, 4.50000007e-05
   2915, 0.000246999989, 4.99999987e-05
   2916, 0.000246999989, 5.50000004e-05
   2917, 0.000246999989, 5.99999985e-05
   2918, 0.000246999989, 6.50000002e-05
   2919, 0.000246999989, 7.00000019e-05
   2920, 0.000246999989, 7.50000036e-05
   2921, 0.000246999989, 7.9999998e-05
   2922, 0.000246999989, 8.49999997e-05
   2923, 0.000246999989, 9.00000014e-05
   2924, 0.000246999989, 9.50000031e-05
   2925, 0.000246999989, 9.99999975e-05
   2926, 0.000246999989, 0.000104999999
   2927, 0.000246999989, 0.000110000001
   2928, 0.000246999989, 0.000115000003
   2929, 0.000246999989, 0.000119999997
   2930, 0.000246999989, 0.000125000006
   2931, 0.000246999989,      0.00013
   2932, 0.000246999989, 0.000134999995
   2933, 0.000246999989, 0.000140000004
   2934, 0.000246999989, 0.000144999998
   2935, 0.000246999989, 0.000150000007
   2936, 0.000246999989, 0.000155000002
   2937, 0.000246999989, 0.000159999996
   2938, 0.000246999989, 0.000165000005
   2939, 0.000246999989, 0.000169999999
   2940, 0.000246999989, 0.000174999994
   2941, 0.000246999989, 0.000180000003
   2942, 0.000246999989, 0.000184999997
   2943, 0.000246999989, 0.000190000006
   2944, 0.000246999989, 0.000195000001
   2945, 0.000245500007, 4.99999987e-06
   2946, 0.000245500007, 9.99999975e-06
   2947, 0.000245500007, 1.49999996e-05
   2948, 0.000245500007, 1.99999995e-05
   2949, 0.000245500007, 2.49999994e-05
   2950, 0.000245500007, 2.99999992e-05
   2951, 0.000245500007, 3.50000009e-05
   2952, 0.000245500007, 3.9999999e-05
   2953, 0.000245500007, 4.50000007e-05
   2954, 0.000245500007, 4.99999987e-05
   2955, 0.000245500007, 5.50000004e-05
   2956, 0.000245500007, 5.99999985e-05
   2957, 0.000245500007, 6.50000002e-05
   2958, 0.000245500007, 7.00000019e-05
   2959, 0.000245500007, 7.50000036e-05
   2960, 0.000245500007, 7.9999998e-05
   2961, 0.000245500007, 8.49999997e-05
   2962, 0.000245500007, 9.00000014e-05
   2963, 0.000245500007, 9.50000031e-05
   2964, 0.000245500007, 9.99999975e-05
   2965, 0.000245500007, 0.000104999999
   2966, 0.000245500007, 0.000110000001
   2967, 0.000245500007, 0.000115000003
   2968, 0.000245500007, 0.000119999997
   2969, 0.000245500007, 0.000125000006
   2970, 0.000245500007,      0.00013
   2971, 0.000245500007, 0.000134999995
   2972, 0.000245500007, 0.000140000004
   2973, 0.000245500007, 0.000144999998
   2974, 0.000245500007, 0.000150000007
   2975, 0.000245500007, 0.000155000002
   2976, 0.000245500007, 0.000159999996
   2977, 0.000245500007, 0.000165000005
   2978, 0.000245500007, 0.000169999999
   2979, 0.000245500007, 0.000174999994
   2980, 0.000245500007, 0.000180000003
   2981, 0.000245500007, 0.000184999997
   2982, 0.000245500007, 0.000190000006
   2983, 0.000245500007, 0.000195000001
   2984, 0.000243999995, 4.99999987e-06
   2985, 0.000243999995, 9.99999975e-06
   2986, 0.000243999995, 1.49999996e-05
   2987, 0.000243999995, 1.99999995e-05
   2988, 0.000243999995, 2.49999994e-05
   2989, 0.000243999995, 2.99999992e-05
   2990, 0.000243999995, 3.50000009e-05
   2991, 0.000243999995, 3.9999999e-05
   2992, 0.000243999995, 4.50000007e-05
   2993, 0.000243999995, 4.99999987e-05
   2994, 0.000243999995, 5.50000004e-05
   2995, 0.000243999995, 5.99999985e-05
   2996, 0.000243999995, 6.50000002e-05
   2997, 0.000243999995, 7.00000019e-05
   2998, 0.000243999995, 7.50000036e-05
   2999, 0.000243999995, 7.9999998e-05
   3000, 0.000243999995, 8.49999997e-05
   3001, 0.000243999995, 9.00000014e-05
   3002, 0.000243999995, 9.50000031e-05
   3003, 0.000243999995, 9.99999975e-05
   3004, 0.000243999995, 0.000104999999
   3005, 0.000243999995, 0.000110000001
   3006, 0.000243999995, 0.000115000003
   3007, 0.000243999995, 0.000119999997
   3008, 0.000243999995, 0.000125000006
   3009, 0.000243999995,      0.00013
   3010, 0.000243999995, 0.000134999995
   3011, 0.000243999995, 0.000140000004
   3012, 0.000243999995, 0.000144999998
   3013, 0.000243999995, 0.000150000007
   3014, 0.000243999995, 0.000155000002
   3015, 0.000243999995, 0.000159999996
   3016, 0.000243999995, 0.000165000005
   3017, 0.000243999995, 0.000169999999
   3018, 0.000243999995, 0.000174999994
   3019, 0.000243999995, 0.000180000003
   3020, 0.000243999995, 0.000184999997
   3021, 0.000243999995, 0.000190000006
   3022, 0.000243999995, 0.000195000001
   3023, 0.000242499998, 4.99999987e-06
   3024, 0.000242499998, 9.99999975e-06
   3025, 0.000242499998, 1.49999996e-05
   3026, 0.000242499998, 1.99999995e-05
   3027, 0.000242499998, 2.49999994e-05
   3028, 0.000242499998, 2.99999992e-05
   3029, 0.000242499998, 3.50000009e-05
   3030, 0.000242499998, 3.9999999e-05
   3031, 0.000242499998, 4.50000007e-05
   3032, 0.000242499998, 4.99999987e-05
   3033, 0.000242499998, 5.50000004e-05
   3034, 0.000242499998, 5.99999985e-05
   3035, 0.000242499998, 6.50000002e-05
   3036, 0.000242499998, 7.00000019e-05
   3037, 0.000242499998, 7.50000036e-05
   3038, 0.000242499998, 7.9999998e-05
   3039, 0.000242499998, 8.49999997e-05
   3040, 0.000242499998, 9.00000014e-05
   3041, 0.000242499998, 9.50000031e-05
   3042, 0.000242499998, 9.99999975e-05
   3043, 0.000242499998, 0.000104999999
   3044, 0.000242499998, 0.000110000001
   3045, 0.000242499998, 0.000115000003
   3046, 0.000242499998, 0.000119999997
   3047, 0.000242499998, 0.000125000006
   3048, 0.000242499998,      0.00013
   3049, 0.000242499998, 0.000134999995
   3050, 0.000242499998, 0.000140000004
   3051, 0.000242499998, 0.000144999998
   3052, 0.000242499998, 0.000150000007
   3053, 0.000242499998, 0.000155000002
   3054, 0.000242499998, 0.000159999996
   3055, 0.000242499998, 0.000165000005
   3056, 0.000242499998, 0.000169999999
   3057, 0.000242499998, 0.000174999994
   3058, 0.000242499998, 0.000180000003
   3059, 0.000242499998, 0.000184999997
   3060, 0.000242499998, 0.000190000006
   3061, 0.000242499998, 0.000195000001
   3062, 0.000241000002, 4.99999987e-06
   3063, 0.000241000002, 9.99999975e-06
   3064, 0.000241000002, 1.49999996e-05
   3065, 0.000241000002, 1.99999995e-05
   3066, 0.000241000002, 2.49999994e-05
   3067, 0.000241000002, 2.99999992e-05
   3068, 0.000241000002, 3.50000009e-05
   3069, 0.000241000002, 3.9999999e-05
   3070, 0.000241000002, 4.50000007e-05
   3071, 0.000241000002, 4.99999987e-05
   3072, 0.000241000002, 5.50000004e-05
   3073, 0.000241000002, 5.99999985e-05
   3074, 0.000241000002, 6.50000002e-05
   3075, 0.000241000002, 7.00000019e-05
   3076, 0.000241000002, 7.50000036e-05
   3077, 0.000241000002, 7.9999998e-05
   3078, 0.000241000002, 8.49999997e-05
   3079, 0.000241000002, 9.00000014e-05
   3080, 0.000241000002, 9.50000031e-05
   3081, 0.000241000002, 9.99999975e-05
   3082, 0.000241000002, 0.000104999999
   3083, 0.000241000002, 0.000110000001
   3084, 0.000241000002, 0.000115000003
   3085, 0.000241000002, 0.000119999997
   3086, 0.000241000002, 0.000125000006
   3087, 0.000241000002,      0.00013
   3088, 0.000241000002, 0.000134999995
   3089, 0.000241000002, 0.000140000004
   3090, 0.000241000002, 0.000144999998
   3091, 0.000241000002, 0.000150000007
   3092, 0.000241000002, 0.000155000002
   3093, 0.000241000002, 0.000159999996
   3094, 0.000241000002, 0.000165000005
   3095, 0.000241000002, 0.000169999999
   3096, 0.000241000002, 0.000174999994
   3097, 0.000241000002, 0.000180000003
   3098, 0.000241000002, 0.000184999997
   3099, 0.000241000002, 0.000190000006
   3100, 0.000241000002, 0.000195000001
   3101, 0.000239500005, 4.99999987e-06
   3102, 0.000239500005, 9.99999975e-06
   3103, 0.000239500005, 1.49999996e-05
   3104, 0.000239500005, 1.99999995e-05
   3105, 0.000239500005, 2.49999994e-05
   3106, 0.000239500005, 2.99999992e-05
   3107, 0.000239500005, 3.50000009e-05
   3108, 0.000239500005, 3.9999999e-05
   3109, 0.000239500005, 4.50000007e-05
   3110, 0.000239500005, 4.99999987e-05
   3111, 0.000239500005, 5.50000004e-05
   3112, 0.000239500005, 5.99999985e-05
   3113, 0.000239500005, 6.50000002e-05
   3114, 0.000239500005, 7.00000019e-05
   3115, 0.000239500005, 7.50000036e-05
   3116, 0.000239500005, 7.9999998e-05
   3117, 0.000239500005, 8.49999997e-05
   3118, 0.000239500005, 9.00000014e-05
   3119, 0.000239500005, 9.50000031e-05
   3120, 0.000239500005, 9.99999975e-05
   3121, 0.000239500005, 0.000104999999
   3122, 0.000239500005, 0.000110000001
   3123, 0.000239500005, 0.000115000003
   3124, 0.000239500005, 0.000119999997
   3125, 0.000239500005, 0.000125000006
   3126, 0.000239500005,      0.00013
   3127, 0.000239500005, 0.000134999995
   3128, 0.000239500005, 0.000140000004
   3129, 0.000239500005, 0.000144999998
   3130, 0.000239500005, 0.000150000007
   3131, 0.000239500005, 0.000155000002
   3132, 0.000239500005, 0.000159999996
   3133, 0.000239500005, 0.000165000005
   3134, 0.000239500005, 0.000169999999
   3135, 0.000239500005, 0.000174999994
   3136, 0.000239500005, 0.000180000003
   3137, 0.000239500005, 0.000184999997
   3138, 0.000239500005, 0.000190000006
   3139, 0.000239500005, 0.000195000001
   3140, 0.000237999993, 4.99999987e-06
   3141, 0.000237999993, 9.99999975e-06
   3142, 0.000237999993, 1.49999996e-05
   3143, 0.000237999993, 1.99999995e-05
   3144, 0.000237999993, 2.49999994e-05
   3145, 0.000237999993, 2.99999992e-05
   3146, 0.000237999993, 3.50000009e-05
   3147, 0.000237999993, 3.9999999e-05
   3148, 0.000237999993, 4.50000007e-05
   3149, 0.000237999993, 4.99999987e-05
   3150, 0.000237999993, 5.50000004e-05
   3151, 0.000237999993, 5.99999985e-05
   3152, 0.000237999993, 6.50000002e-05
   3153, 0.000237999993, 7.00000019e-05
   3154, 0.000237999993, 7.50000036e-05
   3155, 0.000237999993, 7.9999998e-05
   3156, 0.000237999993, 8.49999997e-05
   3157, 0.000237999993, 9.00000014e-05
   3158, 0.000237999993, 9.50000031e-05
   3159, 0.000237999993, 9.99999975e-05
   3160, 0.000237999993, 0.000104999999
   3161, 0.000237999993, 0.000110000001
   3162, 0.000237999993, 0.000115000003
   3163, 0.000237999993, 0.000119999997
   3164, 0.000237999993, 0.000125000006
   3165, 0.000237999993,      0.00013
   3166, 0.000237999993, 0.000134999995
   3167, 0.000237999993, 0.000140000004
   3168, 0.000237999993, 0.000144999998
   3169, 0.000237999993, 0.000150000007
   3170, 0.000237999993, 0.000155000002
   3171, 0.000237999993, 0.000159999996
   3172, 0.000237999993, 0.000165000005
   3173, 0.000237999993, 0.000169999999
   3174, 0.000237999993, 0.000174999994
   3175, 0.000237999993, 0.000180000003
   3176, 0.000237999993, 0.000184999997
   3177, 0.000237999993, 0.000190000006
   3178, 0.000237999993, 0.000195000001
   3179, 0.000236499996, 4.99999987e-06
   3180, 0.000236499996, 9.99999975e-06
   3181, 0.000236499996, 1.49999996e-05
   3182, 0.000236499996, 1.99999995e-05
   3183, 0.000236499996, 2.49999994e-05
   3184, 0.000236499996, 2.99999992e-05
   3185, 0.000236499996, 3.50000009e-05
   3186, 0.000236499996, 3.9999999e-05
   3187, 0.000236499996, 4.50000007e-05
   3188, 0.000236499996, 4.99999987e-05
   3189, 0.000236499996, 5.50000004e-05
   3190, 0.000236499996, 5.99999985e-05
   3191, 0.000236499996, 6.50000002e-05
   3192, 0.000236499996, 7.00000019e-05
   3193, 0.000236499996, 7.50000036e-05
   3194, 0.000236499996, 7.9999998e-05
   3195, 0.000236499996, 8.49999997e-05
   3196, 0.000236499996, 9.00000014e-05
   3197, 0.000236499996, 9.50000031e-05
   3198, 0.000236499996, 9.99999975e-05
   3199, 0.000236499996, 0.000104999999
   3200, 0.000236499996, 0.000110000001
   3201, 0.000236499996, 0.000115000003
   3202, 0.000236499996, 0.000119999997
   3203, 0.000236499996, 0.000125000006
   3204, 0.000236499996,      0.00013
   3205, 0.000236499996, 0.000134999995
   3206, 0.000236499996, 0.000140000004
   3207, 0.000236499996, 0.000144999998
   3208, 0.000236499996, 0.000150000007
   3209, 0.000236499996, 0.000155000002
   3210, 0.000236499996, 0.000159999996
   3211, 0.000236499996, 0.000165000005
   3212, 0.000236499996, 0.000169999999
   3213, 0.000236499996, 0.000174999994
   3214, 0.000236499996, 0.000180000003
   3215, 0.000236499996, 0.000184999997
   3216, 0.000236499996, 0.000190000006
   3217, 0.000236499996, 0.000195000001
   3218,     0.000235, 4.99999987e-06
   3219,     0.000235, 9.99999975e-06
   3220,     0.000235, 1.49999996e-05
   3221,     0.000235, 1.99999995e-05
   3222,     0.000235, 2.49999994e-05
   3223,     0.000235, 2.99999992e-05
   3224,     0.000235, 3.50000009e-05
   3225,     0.000235, 3.9999999e-05
   3226,     0.000235, 4.50000007e-05
   3227,     0.000235, 4.99999987e-05
   3228,     0.000235, 5.50000004e-05
   3229,     0.000235, 5.99999985e-05
   3230,     0.000235, 6.50000002e-05
   3231,     0.000235, 7.00000019e-05
   3232,     0.000235, 7.50000036e-05
   3233,     0.000235, 7.9999998e-05
   3234,     0.000235, 8.49999997e-05
   3235,     0.000235, 9.00000014e-05
   3236,     0.000235, 9.50000031e-05
   3237,     0.000235, 9.99999975e-05
   3238,     0.000235, 0.000104999999
   3239,     0.000235, 0.000110000001
   3240,     0.000235, 0.000115000003
   3241,     0.000235, 0.000119999997
   3242,     0.000235, 0.000125000006
   3243,     0.000235,      0.00013
   3244,     0.000235, 0.000134999995
   3245,     0.000235, 0.000140000004
   3246,     0.000235, 0.000144999998
   3247,     0.000235, 0.000150000007
   3248,     0.000235, 0.000155000002
   3249,     0.000235, 0.000159999996
   3250,     0.000235, 0.000165000005
   3251,     0.000235, 0.000169999999
   3252,     0.000235, 0.000174999994
   3253,     0.000235, 0.000180000003
   3254,     0.000235, 0.000184999997
   3255,     0.000235, 0.000190000006
   3256,     0.000235, 0.000195000001
   3257, 0.000233500003, 4.99999987e-06
   3258, 0.000233500003, 9.99999975e-06
   3259, 0.000233500003, 1.49999996e-05
   3260, 0.000233500003, 1.99999995e-05
   3261, 0.000233500003, 2.49999994e-05
   3262, 0.000233500003, 2.99999992e-05
   3263, 0.000233500003, 3.50000009e-05
   3264, 0.000233500003, 3.9999999e-05
   3265, 0.000233500003, 4.50000007e-05
   3266, 0.000233500003, 4.99999987e-05
   3267, 0.000233500003, 5.50000004e-05
   3268, 0.000233500003, 5.99999985e-05
   3269, 0.000233500003, 6.50000002e-05
   3270, 0.000233500003, 7.00000019e-05
   3271, 0.000233500003, 7.50000036e-05
   3272, 0.000233500003, 7.9999998e-05
   3273, 0.000233500003, 8.49999997e-05
   3274, 0.000233500003, 9.00000014e-05
   3275, 0.000233500003, 9.50000031e-05
   3276, 0.000233500003, 9.99999975e-05
   3277, 0.000233500003, 0.000104999999
   3278, 0.000233500003, 0.000110000001
   3279, 0.000233500003, 0.000115000003
   3280, 0.000233500003, 0.000119999997
   3281, 0.000233500003, 0.000125000006
   3282, 0.000233500003,      0.00013
   3283, 0.000233500003, 0.000134999995
   3284, 0.000233500003, 0.000140000004
   3285, 0.000233500003, 0.000144999998
   3286, 0.000233500003, 0.000150000007
   3287, 0.000233500003, 0.000155000002
   3288, 0.000233500003, 0.000159999996
   3289, 0.000233500003, 0.000165000005
   3290, 0.000233500003, 0.000169999999
   3291, 0.000233500003, 0.000174999994
   3292, 0.000233500003, 0.000180000003
   3293, 0.000233500003, 0.000184999997
   3294, 0.000233500003, 0.000190000006
   3295, 0.000233500003, 0.000195000001
   3296, 0.000232000006, 4.99999987e-06
   3297, 0.000232000006, 9.99999975e-06
   3298, 0.000232000006, 1.49999996e-05
   3299, 0.000232000006, 1.99999995e-05
   3300, 0.000232000006, 2.49999994e-05
   3301, 0.000232000006, 2.99999992e-05
   3302, 0.000232000006, 3.50000009e-05
   3303, 0.000232000006, 3.9999999e-05
   3304, 0.000232000006, 4.50000007e-05
   3305, 0.000232000006, 4.99999987e-05
   3306, 0.000232000006, 5.50000004e-05
   3307, 0.000232000006, 5.99999985e-05
   3308, 0.000232000006, 6.50000002e-05
   3309, 0.000232000006, 7.00000019e-05
   3310, 0.000232000006, 7.50000036e-05
   3311, 0.000232000006, 7.9999998e-05
   3312, 0.000232000006, 8.49999997e-05
   3313, 0.000232000006, 9.00000014e-05
   3314, 0.000232000006, 9.50000031e-05
   3315, 0.000232000006, 9.99999975e-05
   3316, 0.000232000006, 0.000104999999
   3317, 0.000232000006, 0.000110000001
   3318, 0.000232000006, 0.000115000003
   3319, 0.000232000006, 0.000119999997
   3320, 0.000232000006, 0.000125000006
   3321, 0.000232000006,      0.00013
   3322, 0.000232000006, 0.000134999995
   3323, 0.000232000006, 0.000140000004
   3324, 0.000232000006, 0.000144999998
   3325, 0.000232000006, 0.000150000007
   3326, 0.000232000006, 0.000155000002
   3327, 0.000232000006, 0.000159999996
   3328, 0.000232000006, 0.000165000005
   3329, 0.000232000006, 0.000169999999
   3330, 0.000232000006, 0.000174999994
   3331, 0.000232000006, 0.000180000003
   3332, 0.000232000006, 0.000184999997
   3333, 0.000232000006, 0.000190000006
   3334, 0.000232000006, 0.000195000001
   3335, 0.000230499994, 4.99999987e-06
   3336, 0.000230499994, 9.99999975e-06
   3337, 0.000230499994, 1.49999996e-05
   3338, 0.000230499994, 1.99999995e-05
   3339, 0.000230499994, 2.49999994e-05
   3340, 0.000230499994, 2.99999992e-05
   3341, 0.000230499994, 3.50000009e-05
   3342, 0.000230499994, 3.9999999e-05
   3343, 0.000230499994, 4.50000007e-05
   3344, 0.000230499994, 4.99999987e-05
   3345, 0.000230499994, 5.50000004e-05
   3346, 0.000230499994, 5.99999985e-05
   3347, 0.000230499994, 6.50000002e-05
   3348, 0.000230499994, 7.00000019e-05
   3349, 0.000230499994, 7.50000036e-05
   3350, 0.000230499994, 7.9999998e-05
   3351, 0.000230499994, 8.49999997e-05
   3352, 0.000230499994, 9.00000014e-05
   3353, 0.000230499994, 9.50000031e-05
   3354, 0.000230499994, 9.99999975e-05
   3355, 0.000230499994, 0.000104999999
   3356, 0.000230499994, 0.000110000001
   3357, 0.000230499994, 0.000115000003
   3358, 0.000230499994, 0.000119999997
   3359, 0.000230499994, 0.000125000006
   3360, 0.000230499994,      0.00013
   3361, 0.000230499994, 0.000134999995
   3362, 0.000230499994, 0.000140000004
   3363, 0.000230499994, 0.000144999998
   3364, 0.000230499994, 0.000150000007
   3365, 0.000230499994, 0.000155000002
   3366, 0.000230499994, 0.000159999996
   3367, 0.000230499994, 0.000165000005
   3368, 0.000230499994, 0.000169999999
   3369, 0.000230499994, 0.000174999994
   3370, 0.000230499994, 0.000180000003
   3371, 0.000230499994, 0.000184999997
   3372, 0.000230499994, 0.000190000006
   3373, 0.000230499994, 0.000195000001
   3374, 0.000228999997, 4.99999987e-06
   3375, 0.000228999997, 9.99999975e-06
   3376, 0.000228999997, 1.49999996e-05
   3377, 0.000228999997, 1.99999995e-05
   3378, 0.000228999997, 2.49999994e-05
   3379, 0.000228999997, 2.99999992e-05
   3380, 0.000228999997, 3.50000009e-05
   3381, 0.000228999997, 3.9999999e-05
   3382, 0.000228999997, 4.50000007e-05
   3383, 0.000228999997, 4.99999987e-05
   3384, 0.000228999997, 5.50000004e-05
   3385, 0.000228999997, 5.99999985e-05
   3386, 0.000228999997, 6.50000002e-05
   3387, 0.000228999997, 7.00000019e-05
   3388, 0.000228999997, 7.50000036e-05
   3389, 0.000228999997, 7.9999998e-05
   3390, 0.000228999997, 8.49999997e-05
   3391, 0.000228999997, 9.00000014e-05
   3392, 0.000228999997, 9.50000031e-05
   3393, 0.000228999997, 9.99999975e-05
   3394, 0.000228999997, 0.000104999999
   3395, 0.000228999997, 0.000110000001
   3396, 0.000228999997, 0.000115000003
   3397, 0.000228999997, 0.000119999997
   3398, 0.000228999997, 0.000125000006
   3399, 0.000228999997,      0.00013
   3400, 0.000228999997, 0.000134999995
   3401, 0.000228999997, 0.000140000004
   3402, 0.000228999997, 0.000144999998
   3403, 0.000228999997, 0.000150000007
   3404, 0.000228999997, 0.000155000002
   3405, 0.000228999997, 0.000159999996
   3406, 0.000228999997, 0.000165000005
   3407, 0.000228999997, 0.000169999999
   3408, 0.000228999997, 0.000174999994
   3409, 0.000228999997, 0.000180000003
   3410, 0.000228999997, 0.000184999997
   3411, 0.000228999997, 0.000190000006
   3412, 0.000228999997, 0.000195000001
   3413, 0.000227500001, 4.99999987e-06
   3414, 0.000227500001, 9.99999975e-06
   3415, 0.000227500001, 1.49999996e-05
   3416, 0.000227500001, 1.99999995e-05
   3417, 0.000227500001, 2.49999994e-05
   3418, 0.000227500001, 2.99999992e-05
   3419, 0.000227500001, 3.50000009e-05
   3420, 0.000227500001, 3.9999999e-05
   3421, 0.000227500001, 4.50000007e-05
   3422, 0.000227500001, 4.99999987e-05
   3423, 0.000227500001, 5.50000004e-05
   3424, 0.000227500001, 5.99999985e-05
   3425, 0.000227500001, 6.50000002e-05
   3426, 0.000227500001, 7.00000019e-05
   3427, 0.000227500001, 7.50000036e-05
   3428, 0.000227500001, 7.9999998e-05
   3429, 0.000227500001, 8.49999997e-05
   3430, 0.000227500001, 9.00000014e-05
   3431, 0.000227500001, 9.50000031e-05
   3432, 0.000227500001, 9.99999975e-05
   3433, 0.000227500001, 0.000104999999
   3434, 0.000227500001, 0.000110000001
   3435, 0.000227500001, 0.000115000003
   3436, 0.000227500001, 0.000119999997
   3437, 0.000227500001, 0.000125000006
   3438, 0.000227500001,      0.00013
   3439, 0.000227500001, 0.000134999995
   3440, 0.000227500001, 0.000140000004
   3441, 0.000227500001, 0.000144999998
   3442, 0.000227500001, 0.000150000007
   3443, 0.000227500001, 0.000155000002
   3444, 0.000227500001, 0.000159999996
   3445, 0.000227500001, 0.000165000005
   3446, 0.000227500001, 0.000169999999
   3447, 0.000227500001, 0.000174999994
   3448, 0.000227500001, 0.000180000003
   3449, 0.000227500001, 0.000184999997
   3450, 0.000227500001, 0.000190000006
   3451, 0.000227500001, 0.000195000001
   3452, 0.000226000004, 4.99999987e-06
   3453, 0.000226000004, 9.99999975e-06
   3454, 0.000226000004, 1.49999996e-05
   3455, 0.000226000004, 1.99999995e-05
   3456, 0.000226000004, 2.49999994e-05
   3457, 0.000226000004, 2.99999992e-05
   3458, 0.000226000004, 3.50000009e-05
   3459, 0.000226000004, 3.9999999e-05
   3460, 0.000226000004, 4.50000007e-05
   3461, 0.000226000004, 4.99999987e-05
   3462, 0.000226000004, 5.50000004e-05
   3463, 0.000226000004, 5.99999985e-05
   3464, 0.000226000004, 6.50000002e-05
   3465, 0.000226000004, 7.00000019e-05
   3466, 0.000226000004, 7.50000036e-05
   3467, 0.000226000004, 7.9999998e-05
   3468, 0.000226000004, 8.49999997e-05
   3469, 0.000226000004, 9.00000014e-05
   3470, 0.000226000004, 9.50000031e-05
   3471, 0.000226000004, 9.99999975e-05
   3472, 0.000226000004, 0.000104999999
   3473, 0.000226000004, 0.000110000001
   3474, 0.000226000004, 0.000115000003
   3475, 0.000226000004, 0.000119999997
   3476, 0.000226000004, 0.000125000006
   3477, 0.000226000004,      0.00013
   3478, 0.000226000004, 0.000134999995
   3479, 0.000226000004, 0.000140000004
   3480, 0.000226000004, 0.000144999998
   3481, 0.000226000004, 0.000150000007
   3482, 0.000226000004, 0.000155000002
   3483, 0.000226000004, 0.000159999996
   3484, 0.000226000004, 0.000165000005
   3485, 0.000226000004, 0.000169999999
   3486, 0.000226000004, 0.000174999994
   3487, 0.000226000004, 0.000180000003
   3488, 0.000226000004, 0.000184999997
   3489, 0.000226000004, 0.000190000006
   3490, 0.000226000004, 0.000195000001
   3491, 0.000224500007, 4.99999987e-06
   3492, 0.000224500007, 9.99999975e-06
   3493, 0.000224500007, 1.49999996e-05
   3494, 0.000224500007, 1.99999995e-05
   3495, 0.000224500007, 2.49999994e-05
   3496, 0.000224500007, 2.99999992e-05
   3497, 0.000224500007, 3.50000009e-05
   3498, 0.000224500007, 3.9999999e-05
   3499, 0.000224500007, 4.50000007e-05
   3500, 0.000224500007, 4.99999987e-05
   3501, 0.000224500007, 5.50000004e-05
   3502, 0.000224500007, 5.99999985e-05
   3503, 0.000224500007, 6.50000002e-05
   3504, 0.000224500007, 7.00000019e-05
   3505, 0.000224500007, 7.50000036e-05
   3506, 0.000224500007, 7.9999998e-05
   3507, 0.000224500007, 8.49999997e-05
   3508, 0.000224500007, 9.00000014e-05
   3509, 0.000224500007, 9.50000031e-05
   3510, 0.000224500007, 9.99999975e-05
   3511, 0.000224500007, 0.000104999999
   3512, 0.000224500007, 0.000110000001
   3513, 0.000224500007, 0.000115000003
   3514, 0.000224500007, 0.000119999997
   3515, 0.000224500007, 0.000125000006
   3516, 0.000224500007,      0.00013
   3517, 0.000224500007, 0.000134999995
   3518, 0.000224500007, 0.000140000004
   3519, 0.000224500007, 0.000144999998
   3520, 0.000224500007, 0.000150000007
   3521, 0.000224500007, 0.000155000002
   3522, 0.000224500007, 0.000159999996
   3523, 0.000224500007, 0.000165000005
   3524, 0.000224500007, 0.000169999999
   3525, 0.000224500007, 0.000174999994
   3526, 0.000224500007, 0.000180000003
   3527, 0.000224500007, 0.000184999997
   3528, 0.000224500007, 0.000190000006
   3529, 0.000224500007, 0.000195000001
   3530, 0.000222999995, 4.99999987e-06
   3531, 0.000222999995, 9.99999975e-06
   3532, 0.000222999995, 1.49999996e-05
   3533, 0.000222999995, 1.99999995e-05
   3534, 0.000222999995, 2.49999994e-05
   3535, 0.000222999995, 2.99999992e-05
   3536, 0.000222999995, 3.50000009e-05
   3537, 0.000222999995, 3.9999999e-05
   3538, 0.000222999995, 4.50000007e-05
   3539, 0.000222999995, 4.99999987e-05
   3540, 0.000222999995, 5.50000004e-05
   3541, 0.000222999995, 5.99999985e-05
   3542, 0.000222999995, 6.50000002e-05
   3543, 0.000222999995, 7.00000019e-05
   3544, 0.000222999995, 7.50000036e-05
   3545, 0.000222999995, 7.9999998e-05
   3546, 0.000222999995, 8.49999997e-05
   3547, 0.000222999995, 9.00000014e-05
   3548, 0.000222999995, 9.50000031e-05
   3549, 0.000222999995, 9.99999975e-05
   3550, 0.000222999995, 0.000104999999
   3551, 0.000222999995, 0.000110000001
   3552, 0.000222999995, 0.000115000003
   3553, 0.000222999995, 0.000119999997
   3554, 0.000222999995, 0.000125000006
   3555, 0.000222999995,      0.00013
   3556, 0.000222999995, 0.000134999995
   3557, 0.000222999995, 0.000140000004
   3558, 0.000222999995, 0.000144999998
   3559, 0.000222999995, 0.000150000007
   3560, 0.000222999995, 0.000155000002
   3561, 0.000222999995, 0.000159999996
   3562, 0.000222999995, 0.000165000005
   3563, 0.000222999995, 0.000169999999
   3564, 0.000222999995, 0.000174999994
   3565, 0.000222999995, 0.000180000003
   3566, 0.000222999995, 0.000184999997
   3567, 0.000222999995, 0.000190000006
   3568, 0.000222999995, 0.000195000001
   3569, 0.000221499999, 4.99999987e-06
   3570, 0.000221499999, 9.99999975e-06
   3571, 0.000221499999, 1.49999996e-05
   3572, 0.000221499999, 1.99999995e-05
   3573, 0.000221499999, 2.49999994e-05
   3574, 0.000221499999, 2.99999992e-05
   3575, 0.000221499999, 3.50000009e-05
   3576, 0.000221499999, 3.9999999e-05
   3577, 0.000221499999, 4.50000007e-05
   3578, 0.000221499999, 4.99999987e-05
   3579, 0.000221499999, 5.50000004e-05
   3580, 0.000221499999, 5.99999985e-05
   3581, 0.000221499999, 6.50000002e-05
   3582, 0.000221499999, 7.00000019e-05
   3583, 0.000221499999, 7.50000036e-05
   3584, 0.000221499999, 7.9999998e-05
   3585, 0.000221499999, 8.49999997e-05
   3586, 0.000221499999, 9.00000014e-05
   3587, 0.000221499999, 9.50000031e-05
   3588, 0.000221499999, 9.99999975e-05
   3589, 0.000221499999, 0.000104999999
   3590, 0.000221499999, 0.000110000001
   3591, 0.000221499999, 0.000115000003
   3592, 0.000221499999, 0.000119999997
   3593, 0.000221499999, 0.000125000006
   3594, 0.000221499999,      0.00013
   3595, 0.000221499999, 0.000134999995
   3596, 0.000221499999, 0.000140000004
   3597, 0.000221499999, 0.000144999998
   3598, 0.000221499999, 0.000150000007
   3599, 0.000221499999, 0.000155000002
   3600, 0.000221499999, 0.000159999996
   3601, 0.000221499999, 0.000165000005
   3602, 0.000221499999, 0.000169999999
   3603, 0.000221499999, 0.000174999994
   3604, 0.000221499999, 0.000180000003
   3605, 0.000221499999, 0.000184999997
   3606, 0.000221499999, 0.000190000006
   3607, 0.000221499999, 0.000195000001
   3608, 0.000220000002, 4.99999987e-06
   3609, 0.000220000002, 9.99999975e-06
   3610, 0.000220000002, 1.49999996e-05
   3611, 0.000220000002, 1.99999995e-05
   3612, 0.000220000002, 2.49999994e-05
   3613, 0.000220000002, 2.99999992e-05
   3614, 0.000220000002, 3.50000009e-05
   3615, 0.000220000002, 3.9999999e-05
   3616, 0.000220000002, 4.50000007e-05
   3617, 0.000220000002, 4.99999987e-05
   3618, 0.000220000002, 5.50000004e-05
   3619, 0.000220000002, 5.99999985e-05
   3620, 0.000220000002, 6.50000002e-05
   3621, 0.000220000002, 7.00000019e-05
   3622, 0.000220000002, 7.50000036e-05
   3623, 0.000220000002, 7.9999998e-05
   3624, 0.000220000002, 8.49999997e-05
   3625, 0.000220000002, 9.00000014e-05
   3626, 0.000220000002, 9.50000031e-05
   3627, 0.000220000002, 9.99999975e-05
   3628, 0.000220000002, 0.000104999999
   3629, 0.000220000002, 0.000110000001
   3630, 0.000220000002, 0.000115000003
   3631, 0.000220000002, 0.000119999997
   3632, 0.000220000002, 0.000125000006
   3633, 0.000220000002,      0.00013
   3634, 0.000220000002, 0.000134999995
   3635, 0.000220000002, 0.000140000004
   3636, 0.000220000002, 0.000144999998
   3637, 0.000220000002, 0.000150000007
   3638, 0.000220000002, 0.000155000002
   3639, 0.000220000002, 0.000159999996
   3640, 0.000220000002, 0.000165000005
   3641, 0.000220000002, 0.000169999999
   3642, 0.000220000002, 0.000174999994
   3643, 0.000220000002, 0.000180000003
   3644, 0.000220000002, 0.000184999997
   3645, 0.000220000002, 0.000190000006
   3646, 0.000220000002, 0.000195000001
   3647, 0.000218500005, 4.99999987e-06
   3648, 0.000218500005, 9.99999975e-06
   3649, 0.000218500005, 1.49999996e-05
   3650, 0.000218500005, 1.99999995e-05
   3651, 0.000218500005, 2.49999994e-05
   3652, 0.000218500005, 2.99999992e-05
   3653, 0.000218500005, 3.50000009e-05
   3654, 0.000218500005, 3.9999999e-05
   3655, 0.000218500005, 4.50000007e-05
   3656, 0.000218500005, 4.99999987e-05
   3657, 0.000218500005, 5.50000004e-05
   3658, 0.000218500005, 5.99999985e-05
   3659, 0.000218500005, 6.50000002e-05
   3660, 0.000218500005, 7.00000019e-05
   3661, 0.000218500005, 7.50000036e-05
   3662, 0.000218500005, 7.9999998e-05
   3663, 0.000218500005, 8.49999997e-05
   3664, 0.000218500005, 9.00000014e-05
   3665, 0.000218500005, 9.50000031e-05
   3666, 0.000218500005, 9.99999975e-05
   3667, 0.000218500005, 0.000104999999
   3668, 0.000218500005, 0.000110000001
   3669, 0.000218500005, 0.000115000003
   3670, 0.000218500005, 0.000119999997
   3671, 0.000218500005, 0.000125000006
   3672, 0.000218500005,      0.00013
   3673, 0.000218500005, 0.000134999995
   3674, 0.000218500005, 0.000140000004
   3675, 0.000218500005, 0.000144999998
   3676, 0.000218500005, 0.000150000007
   3677, 0.000218500005, 0.000155000002
   3678, 0.000218500005, 0.000159999996
   3679, 0.000218500005, 0.000165000005
   3680, 0.000218500005, 0.000169999999
   3681, 0.000218500005, 0.000174999994
   3682, 0.000218500005, 0.000180000003
   3683, 0.000218500005, 0.000184999997
   3684, 0.000218500005, 0.000190000006
   3685, 0.000218500005, 0.000195000001
   3686, 0.000216999993, 4.99999987e-06
   3687, 0.000216999993, 9.99999975e-06
   3688, 0.000216999993, 1.49999996e-05
   3689, 0.000216999993, 1.99999995e-05
   3690, 0.000216999993, 2.49999994e-05
   3691, 0.000216999993, 2.99999992e-05
   3692, 0.000216999993, 3.50000009e-05
   3693, 0.000216999993, 3.9999999e-05
   3694, 0.000216999993, 4.50000007e-05
   3695, 0.000216999993, 4.99999987e-05
   3696, 0.000216999993, 5.50000004e-05
   3697, 0.000216999993, 5.99999985e-05
   3698, 0.000216999993, 6.50000002e-05
   3699, 0.000216999993, 7.00000019e-05
   3700, 0.000216999993, 7.50000036e-05
   3701, 0.000216999993, 7.9999998e-05
   3702, 0.000216999993, 8.49999997e-05
   3703, 0.000216999993, 9.00000014e-05
   3704, 0.000216999993, 9.50000031e-05
   3705, 0.000216999993, 9.99999975e-05
   3706, 0.000216999993, 0.000104999999
   3707, 0.000216999993, 0.000110000001
   3708, 0.000216999993, 0.000115000003
   3709, 0.000216999993, 0.000119999997
   3710, 0.000216999993, 0.000125000006
   3711, 0.000216999993,      0.00013
   3712, 0.000216999993, 0.000134999995
   3713, 0.000216999993, 0.000140000004
   3714, 0.000216999993, 0.000144999998
   3715, 0.000216999993, 0.000150000007
   3716, 0.000216999993, 0.000155000002
   3717, 0.000216999993, 0.000159999996
   3718, 0.000216999993, 0.000165000005
   3719, 0.000216999993, 0.000169999999
   3720, 0.000216999993, 0.000174999994
   3721, 0.000216999993, 0.000180000003
   3722, 0.000216999993, 0.000184999997
   3723, 0.000216999993, 0.000190000006
   3724, 0.000216999993, 0.000195000001
   3725, 0.000215499997, 4.99999987e-06
   3726, 0.000215499997, 9.99999975e-06
   3727, 0.000215499997, 1.49999996e-05
   3728, 0.000215499997, 1.99999995e-05
   3729, 0.000215499997, 2.49999994e-05
   3730, 0.000215499997, 2.99999992e-05
   3731, 0.000215499997, 3.50000009e-05
   3732, 0.000215499997, 3.9999999e-05
   3733, 0.000215499997, 4.50000007e-05
   3734, 0.000215499997, 4.99999987e-05
   3735, 0.000215499997, 5.50000004e-05
   3736, 0.000215499997, 5.99999985e-05
   3737, 0.000215499997, 6.50000002e-05
   3738, 0.000215499997, 7.00000019e-05
   3739, 0.000215499997, 7.50000036e-05
   3740, 0.000215499997, 7.9999998e-05
   3741, 0.000215499997, 8.49999997e-05
   3742, 0.000215499997, 9.00000014e-05
   3743, 0.000215499997, 9.50000031e-05
   3744, 0.000215499997, 9.99999975e-05
   3745, 0.000215499997, 0.000104999999
   3746, 0.000215499997, 0.000110000001
   3747, 0.000215499997, 0.000115000003
   3748, 0.000215499997, 0.000119999997
   3749, 0.000215499997, 0.000125000006
   3750, 0.000215499997,      0.00013
   3751, 0.000215499997, 0.000134999995
   3752, 0.000215499997, 0.000140000004
   3753, 0.000215499997, 0.000144999998
   3754, 0.000215499997, 0.000150000007
   3755, 0.000215499997, 0.000155000002
   3756, 0.000215499997, 0.000159999996
   3757, 0.000215499997, 0.000165000005
   3758, 0.000215499997, 0.000169999999
   3759, 0.000215499997, 0.000174999994
   3760, 0.000215499997, 0.000180000003
   3761, 0.000215499997, 0.000184999997
   3762, 0.000215499997, 0.000190000006
   3763, 0.000215499997, 0.000195000001
   3764,     0.000214, 4.99999987e-06
   3765,     0.000214, 9.99999975e-06
   3766,     0.000214, 1.49999996e-05
   3767,     0.000214, 1.99999995e-05
   3768,     0.000214, 2.49999994e-05
   3769,     0.000214, 2.99999992e-05
   3770,     0.000214, 3.50000009e-05
   3771,     0.000214, 3.9999999e-05
   3772,     0.000214, 4.50000007e-05
   3773,     0.000214, 4.99999987e-05
   3774,     0.000214, 5.50000004e-05
   3775,     0.000214, 5.99999985e-05
   3776,     0.000214, 6.50000002e-05
   3777,     0.000214, 7.00000019e-05
   3778,     0.000214, 7.50000036e-05
   3779,     0.000214, 7.9999998e-05
   3780,     0.000214, 8.49999997e-05
   3781,     0.000214, 9.00000014e-05
   3782,     0.000214, 9.50000031e-05
   3783,     0.000214, 9.99999975e-05
   3784,     0.000214, 0.000104999999
   3785,     0.000214, 0.000110000001
   3786,     0.000214, 0.000115000003
   3787,     0.000214, 0.000119999997
   3788,     0.000214, 0.000125000006
   3789,     0.000214,      0.00013
   3790,     0.000214, 0.000134999995
   3791,     0.000214, 0.000140000004
   3792,     0.000214, 0.000144999998
   3793,     0.000214, 0.000150000007
   3794,     0.000214, 0.000155000002
   3795,     0.000214, 0.000159999996
   3796,     0.000214, 0.000165000005
   3797,     0.000214, 0.000169999999
   3798,     0.000214, 0.000174999994
   3799,     0.000214, 0.000180000003
   3800,     0.000214, 0.000184999997
   3801,     0.000214, 0.000190000006
   3802,     0.000214, 0.000195000001
   3803, 0.000212500003, 4.99999987e-06
   3804, 0.000212500003, 9.99999975e-06
   3805, 0.000212500003, 1.49999996e-05
   3806, 0.000212500003, 1.99999995e-05
   3807, 0.000212500003, 2.49999994e-05
   3808, 0.000212500003, 2.99999992e-05
   3809, 0.000212500003, 3.50000009e-05
   3810, 0.000212500003, 3.9999999e-05
   3811, 0.000212500003, 4.50000007e-05
   3812, 0.000212500003, 4.99999987e-05
   3813, 0.000212500003, 5.50000004e-05
   3814, 0.000212500003, 5.99999985e-05
   3815, 0.000212500003, 6.50000002e-05
   3816, 0.000212500003, 7.00000019e-05
   3817, 0.000212500003, 7.50000036e-05
   3818, 0.000212500003, 7.9999998e-05
   3819, 0.000212500003, 8.49999997e-05
   3820, 0.000212500003, 9.00000014e-05
   3821, 0.000212500003, 9.50000031e-05
   3822, 0.000212500003, 9.99999975e-05
   3823, 0.000212500003, 0.000104999999
   3824, 0.000212500003, 0.000110000001
   3825, 0.000212500003, 0.000115000003
   3826, 0.000212500003, 0.000119999997
   3827, 0.000212500003, 0.000125000006
   3828, 0.000212500003,      0.00013
   3829, 0.000212500003, 0.000134999995
   3830, 0.000212500003, 0.000140000004
   3831, 0.000212500003, 0.000144999998
   3832, 0.000212500003, 0.000150000007
   3833, 0.000212500003, 0.000155000002
   3834, 0.000212500003, 0.000159999996
   3835, 0.000212500003, 0.000165000005
   3836, 0.000212500003, 0.000169999999
   3837, 0.000212500003, 0.000174999994
   3838, 0.000212500003, 0.000180000003
   3839, 0.000212500003, 0.000184999997
   3840, 0.000212500003, 0.000190000006
   3841, 0.000212500003, 0.000195000001
   3842, 0.000211000006, 4.99999987e-06
   3843, 0.000211000006, 9.99999975e-06
   3844, 0.000211000006, 1.49999996e-05
   3845, 0.000211000006, 1.99999995e-05
   3846, 0.000211000006, 2.49999994e-05
   3847, 0.000211000006, 2.99999992e-05
   3848, 0.000211000006, 3.50000009e-05
   3849, 0.000211000006, 3.9999999e-05
   3850, 0.000211000006, 4.50000007e-05
   3851, 0.000211000006, 4.99999987e-05
   3852, 0.000211000006, 5.50000004e-05
   3853, 0.000211000006, 5.99999985e-05
   3854, 0.000211000006, 6.50000002e-05
   3855, 0.000211000006, 7.00000019e-05
   3856, 0.000211000006, 7.50000036e-05
   3857, 0.000211000006, 7.9999998e-05
   3858, 0.000211000006, 8.49999997e-05
   3859, 0.000211000006, 9.00000014e-05
   3860, 0.000211000006, 9.50000031e-05
   3861, 0.000211000006, 9.99999975e-05
   3862, 0.000211000006, 0.000104999999
   3863, 0.000211000006, 0.000110000001
   3864, 0.000211000006, 0.000115000003
   3865, 0.000211000006, 0.000119999997
   3866, 0.000211000006, 0.000125000006
   3867, 0.000211000006,      0.00013
   3868, 0.000211000006, 0.000134999995
   3869, 0.000211000006, 0.000140000004
   3870, 0.000211000006, 0.000144999998
   3871, 0.000211000006, 0.000150000007
   3872, 0.000211000006, 0.000155000002
   3873, 0.000211000006, 0.000159999996
   3874, 0.000211000006, 0.000165000005
   3875, 0.000211000006, 0.000169999999
   3876, 0.000211000006, 0.000174999994
   3877, 0.000211000006, 0.000180000003
   3878, 0.000211000006, 0.000184999997
   3879, 0.000211000006, 0.000190000006
   3880, 0.000211000006, 0.000195000001
   3881, 0.000209499995, 4.99999987e-06
   3882, 0.000209499995, 9.99999975e-06
   3883, 0.000209499995, 1.49999996e-05
   3884, 0.000209499995, 1.99999995e-05
   3885, 0.000209499995, 2.49999994e-05
   3886, 0.000209499995, 2.99999992e-05
   3887, 0.000209499995, 3.50000009e-05
   3888, 0.000209499995, 3.9999999e-05
   3889, 0.000209499995, 4.50000007e-05
   3890, 0.000209499995, 4.99999987e-05
   3891, 0.000209499995, 5.50000004e-05
   3892, 0.000209499995, 5.99999985e-05
   3893, 0.000209499995, 6.50000002e-05
   3894, 0.000209499995, 7.00000019e-05
   3895, 0.000209499995, 7.50000036e-05
   3896, 0.000209499995, 7.9999998e-05
   3897, 0.000209499995, 8.49999997e-05
   3898, 0.000209499995, 9.00000014e-05
   3899, 0.000209499995, 9.50000031e-05
   3900, 0.000209499995, 9.99999975e-05
   3901, 0.000209499995, 0.000104999999
   3902, 0.000209499995, 0.000110000001
   3903, 0.000209499995, 0.000115000003
   3904, 0.000209499995, 0.000119999997
   3905, 0.000209499995, 0.000125000006
   3906, 0.000209499995,      0.00013
   3907, 0.000209499995, 0.000134999995
   3908, 0.000209499995, 0.000140000004
   3909, 0.000209499995, 0.000144999998
   3910, 0.000209499995, 0.000150000007
   3911, 0.000209499995, 0.000155000002
   3912, 0.000209499995, 0.000159999996
   3913, 0.000209499995, 0.000165000005
   3914, 0.000209499995, 0.000169999999
   3915, 0.000209499995, 0.000174999994
   3916, 0.000209499995, 0.000180000003
   3917, 0.000209499995, 0.000184999997
   3918, 0.000209499995, 0.000190000006
   3919, 0.000209499995, 0.000195000001
   3920, 0.000207999998, 4.99999987e-06
   3921, 0.000207999998, 9.99999975e-06
   3922, 0.000207999998, 1.49999996e-05
   3923, 0.000207999998, 1.99999995e-05
   3924, 0.000207999998, 2.49999994e-05
   3925, 0.000207999998, 2.99999992e-05
   3926, 0.000207999998, 3.50000009e-05
   3927, 0.000207999998, 3.9999999e-05
   3928, 0.000207999998, 4.50000007e-05
   3929, 0.000207999998, 4.99999987e-05
   3930, 0.000207999998, 5.50000004e-05
   3931, 0.000207999998, 5.99999985e-05
   3932, 0.000207999998, 6.50000002e-05
   3933, 0.000207999998, 7.00000019e-05
   3934, 0.000207999998, 7.50000036e-05
   3935, 0.000207999998, 7.9999998e-05
   3936, 0.000207999998, 8.49999997e-05
   3937, 0.000207999998, 9.00000014e-05
   3938, 0.000207999998, 9.50000031e-05
   3939, 0.000207999998, 9.99999975e-05
   3940, 0.000207999998, 0.000104999999
   3941, 0.000207999998, 0.000110000001
   3942, 0.000207999998, 0.000115000003
   3943, 0.000207999998, 0.000119999997
   3944, 0.000207999998, 0.000125000006
   3945, 0.000207999998,      0.00013
   3946, 0.000207999998, 0.000134999995
   3947, 0.000207999998, 0.000140000004
   3948, 0.000207999998, 0.000144999998
   3949, 0.000207999998, 0.000150000007
   3950, 0.000207999998, 0.000155000002
   3951, 0.000207999998, 0.000159999996
   3952, 0.000207999998, 0.000165000005
   3953, 0.000207999998, 0.000169999999
   3954, 0.000207999998, 0.000174999994
   3955, 0.000207999998, 0.000180000003
   3956, 0.000207999998, 0.000184999997
   3957, 0.000207999998, 0.000190000006
   3958, 0.000207999998, 0.000195000001
   3959, 0.000206500001, 4.99999987e-06
   3960, 0.000206500001, 9.99999975e-06
   3961, 0.000206500001, 1.49999996e-05
   3962, 0.000206500001, 1.99999995e-05
   3963, 0.000206500001, 2.49999994e-05
   3964, 0.000206500001, 2.99999992e-05
   3965, 0.000206500001, 3.50000009e-05
   3966, 0.000206500001, 3.9999999e-05
   3967, 0.000206500001, 4.50000007e-05
   3968, 0.000206500001, 4.99999987e-05
   3969, 0.000206500001, 5.50000004e-05
   3970, 0.000206500001, 5.99999985e-05
   3971, 0.000206500001, 6.50000002e-05
   3972, 0.000206500001, 7.00000019e-05
   3973, 0.000206500001, 7.50000036e-05
   3974, 0.000206500001, 7.9999998e-05
   3975, 0.000206500001, 8.49999997e-05
   3976, 0.000206500001, 9.00000014e-05
   3977, 0.000206500001, 9.50000031e-05
   3978, 0.000206500001, 9.99999975e-05
   3979, 0.000206500001, 0.000104999999
   3980, 0.000206500001, 0.000110000001
   3981, 0.000206500001, 0.000115000003
   3982, 0.000206500001, 0.000119999997
   3983, 0.000206500001, 0.000125000006
   3984, 0.000206500001,      0.00013
   3985, 0.000206500001, 0.000134999995
   3986, 0.000206500001, 0.000140000004
   3987, 0.000206500001, 0.000144999998
   3988, 0.000206500001, 0.000150000007
   3989, 0.000206500001, 0.000155000002
   3990, 0.000206500001, 0.000159999996
   3991, 0.000206500001, 0.000165000005
   3992, 0.000206500001, 0.000169999999
   3993, 0.000206500001, 0.000174999994
   3994, 0.000206500001, 0.000180000003
   3995, 0.000206500001, 0.000184999997
   3996, 0.000206500001, 0.000190000006
   3997, 0.000206500001, 0.000195000001
   3998, 0.000205000004, 4.99999987e-06
   3999, 0.000205000004, 9.99999975e-06
   4000, 0.000205000004, 1.49999996e-05
   4001, 0.000205000004, 1.99999995e-05
   4002, 0.000205000004, 2.49999994e-05
   4003, 0.000205000004, 2.99999992e-05
   4004, 0.000205000004, 3.50000009e-05
   4005, 0.000205000004, 3.9999999e-05
   4006, 0.000205000004, 4.50000007e-05
   4007, 0.000205000004, 4.99999987e-05
   4008, 0.000205000004, 5.50000004e-05
   4009, 0.000205000004, 5.99999985e-05
   4010, 0.000205000004, 6.50000002e-05
   4011, 0.000205000004, 7.00000019e-05
   4012, 0.000205000004, 7.50000036e-05
   4013, 0.000205000004, 7.9999998e-05
   4014, 0.000205000004, 8.49999997e-05
   4015, 0.000205000004, 9.00000014e-05
   4016, 0.000205000004, 9.50000031e-05
   4017, 0.000205000004, 9.99999975e-05
   4018, 0.000205000004, 0.000104999999
   4019, 0.000205000004, 0.000110000001
   4020, 0.000205000004, 0.000115000003
   4021, 0.000205000004, 0.000119999997
   4022, 0.000205000004, 0.000125000006
   4023, 0.000205000004,      0.00013
   4024, 0.000205000004, 0.000134999995
   4025, 0.000205000004, 0.000140000004
   4026, 0.000205000004, 0.000144999998
   4027, 0.000205000004, 0.000150000007
   4028, 0.000205000004, 0.000155000002
   4029, 0.000205000004, 0.000159999996
   4030, 0.000205000004, 0.000165000005
   4031, 0.000205000004, 0.000169999999
   4032, 0.000205000004, 0.000174999994
   4033, 0.000205000004, 0.000180000003
   4034, 0.000205000004, 0.000184999997
   4035, 0.000205000004, 0.000190000006
   4036, 0.000205000004, 0.000195000001
   4037, 0.000203500007, 4.99999987e-06
   4038, 0.000203500007, 9.99999975e-06
   4039, 0.000203500007, 1.49999996e-05
   4040, 0.000203500007, 1.99999995e-05
   4041, 0.000203500007, 2.49999994e-05
   4042, 0.000203500007, 2.99999992e-05
   4043, 0.000203500007, 3.50000009e-05
   4044, 0.000203500007, 3.9999999e-05
   4045, 0.000203500007, 4.50000007e-05
   4046, 0.000203500007, 4.99999987e-05
   4047, 0.000203500007, 5.50000004e-05
   4048, 0.000203500007, 5.99999985e-05
   4049, 0.000203500007, 6.50000002e-05
   4050, 0.000203500007, 7.00000019e-05
   4051, 0.000203500007, 7.50000036e-05
   4052, 0.000203500007, 7.9999998e-05
   4053, 0.000203500007, 8.49999997e-05
   4054, 0.000203500007, 9.00000014e-05
   4055, 0.000203500007, 9.50000031e-05
   4056, 0.000203500007, 9.99999975e-05
   4057, 0.000203500007, 0.000104999999
   4058, 0.000203500007, 0.000110000001
   4059, 0.000203500007, 0.000115000003
   4060, 0.000203500007, 0.000119999997
   4061, 0.000203500007, 0.000125000006
   4062, 0.000203500007,      0.00013
   4063, 0.000203500007, 0.000134999995
   4064, 0.000203500007, 0.000140000004
   4065, 0.000203500007, 0.000144999998
   4066, 0.000203500007, 0.000150000007
   4067, 0.000203500007, 0.000155000002
   4068, 0.000203500007, 0.000159999996
   4069, 0.000203500007, 0.000165000005
   4070, 0.000203500007, 0.000169999999
   4071, 0.000203500007, 0.000174999994
   4072, 0.000203500007, 0.000180000003
   4073, 0.000203500007, 0.000184999997
   4074, 0.000203500007, 0.000190000006
   4075, 0.000203500007, 0.000195000001
   4076, 0.000201999996, 4.99999987e-06
   4077, 0.000201999996, 9.99999975e-06
   4078, 0.000201999996, 1.49999996e-05
   4079, 0.000201999996, 1.99999995e-05
   4080, 0.000201999996, 2.49999994e-05
   4081, 0.000201999996, 2.99999992e-05
   4082, 0.000201999996, 3.50000009e-05
   4083, 0.000201999996, 3.9999999e-05
   4084, 0.000201999996, 4.50000007e-05
   4085, 0.000201999996, 4.99999987e-05
   4086, 0.000201999996, 5.50000004e-05
   4087, 0.000201999996, 5.99999985e-05
   4088, 0.000201999996, 6.50000002e-05
   4089, 0.000201999996, 7.00000019e-05
   4090, 0.000201999996, 7.50000036e-05
   4091, 0.000201999996, 7.9999998e-05
   4092, 0.000201999996, 8.49999997e-05
   4093, 0.000201999996, 9.00000014e-05
   4094, 0.000201999996, 9.50000031e-05
   4095, 0.000201999996, 9.99999975e-05
   4096, 0.000201999996, 0.000104999999
   4097, 0.000201999996, 0.000110000001
   4098, 0.000201999996, 0.000115000003
   4099, 0.000201999996, 0.000119999997
   4100, 0.000201999996, 0.000125000006
   4101, 0.000201999996,      0.00013
   4102, 0.000201999996, 0.000134999995
   4103, 0.000201999996, 0.000140000004
   4104, 0.000201999996, 0.000144999998
   4105, 0.000201999996, 0.000150000007
   4106, 0.000201999996, 0.000155000002
   4107, 0.000201999996, 0.000159999996
   4108, 0.000201999996, 0.000165000005
   4109, 0.000201999996, 0.000169999999
   4110, 0.000201999996, 0.000174999994
   4111, 0.000201999996, 0.000180000003
   4112, 0.000201999996, 0.000184999997
   4113, 0.000201999996, 0.000190000006
   4114, 0.000201999996, 0.000195000001
   4115, 0.000200499999, 4.99999987e-06
   4116, 0.000200499999, 9.99999975e-06
   4117, 0.000200499999, 1.49999996e-05
   4118, 0.000200499999, 1.99999995e-05
   4119, 0.000200499999, 2.49999994e-05
   4120, 0.000200499999, 2.99999992e-05
   4121, 0.000200499999, 3.50000009e-05
   4122, 0.000200499999, 3.9999999e-05
   4123, 0.000200499999, 4.50000007e-05
   4124, 0.000200499999, 4.99999987e-05
   4125, 0.000200499999, 5.50000004e-05
   4126, 0.000200499999, 5.99999985e-05
   4127, 0.000200499999, 6.50000002e-05
   4128, 0.000200499999, 7.00000019e-05
   4129, 0.000200499999, 7.50000036e-05
   4130, 0.000200499999, 7.9999998e-05
   4131, 0.000200499999, 8.49999997e-05
   4132, 0.000200499999, 9.00000014e-05
   4133, 0.000200499999, 9.50000031e-05
   4134, 0.000200499999, 9.99999975e-05
   4135, 0.000200499999, 0.000104999999
   4136, 0.000200499999, 0.000110000001
   4137, 0.000200499999, 0.000115000003
   4138, 0.000200499999, 0.000119999997
   4139, 0.000200499999, 0.000125000006
   4140, 0.000200499999,      0.00013
   4141, 0.000200499999, 0.000134999995
   4142, 0.000200499999, 0.000140000004
   4143, 0.000200499999, 0.000144999998
   4144, 0.000200499999, 0.000150000007
   4145, 0.000200499999, 0.000155000002
   4146, 0.000200499999, 0.000159999996
   4147, 0.000200499999, 0.000165000005
   4148, 0.000200499999, 0.000169999999
   4149, 0.000200499999, 0.000174999994
   4150, 0.000200499999, 0.000180000003
   4151, 0.000200499999, 0.000184999997
   4152, 0.000200499999, 0.000190000006
   4153, 0.000200499999, 0.000195000001
   4154, 0.000199000002, 4.99999987e-06
   4155, 0.000199000002, 9.99999975e-06
   4156, 0.000199000002, 1.49999996e-05
   4157, 0.000199000002, 1.99999995e-05
   4158, 0.000199000002, 2.49999994e-05
   4159, 0.000199000002, 2.99999992e-05
   4160, 0.000199000002, 3.50000009e-05
   4161, 0.000199000002, 3.9999999e-05
   4162, 0.000199000002, 4.50000007e-05
   4163, 0.000199000002, 4.99999987e-05
   4164, 0.000199000002, 5.50000004e-05
   4165, 0.000199000002, 5.99999985e-05
   4166, 0.000199000002, 6.50000002e-05
   4167, 0.000199000002, 7.00000019e-05
   4168, 0.000199000002, 7.50000036e-05
   4169, 0.000199000002, 7.9999998e-05
   4170, 0.000199000002, 8.49999997e-05
   4171, 0.000199000002, 9.00000014e-05
   4172, 0.000199000002, 9.50000031e-05
   4173, 0.000199000002, 9.99999975e-05
   4174, 0.000199000002, 0.000104999999
   4175, 0.000199000002, 0.000110000001
   4176, 0.000199000002, 0.000115000003
   4177, 0.000199000002, 0.000119999997
   4178, 0.000199000002, 0.000125000006
   4179, 0.000199000002,      0.00013
   4180, 0.000199000002, 0.000134999995
   4181, 0.000199000002, 0.000140000004
   4182, 0.000199000002, 0.000144999998
   4183, 0.000199000002, 0.000150000007
   4184, 0.000199000002, 0.000155000002
   4185, 0.000199000002, 0.000159999996
   4186, 0.000199000002, 0.000165000005
   4187, 0.000199000002, 0.000169999999
   4188, 0.000199000002, 0.000174999994
   4189, 0.000199000002, 0.000180000003
   4190, 0.000199000002, 0.000184999997
   4191, 0.000199000002, 0.000190000006
   4192, 0.000199000002, 0.000195000001
   4193, 0.000197500005, 4.99999987e-06
   4194, 0.000197500005, 9.99999975e-06
   4195, 0.000197500005, 1.49999996e-05
   4196, 0.000197500005, 1.99999995e-05
   4197, 0.000197500005, 2.49999994e-05
   4198, 0.000197500005, 2.99999992e-05
   4199, 0.000197500005, 3.50000009e-05
   4200, 0.000197500005, 3.9999999e-05
   4201, 0.000197500005, 4.50000007e-05
   4202, 0.000197500005, 4.99999987e-05
   4203, 0.000197500005, 5.50000004e-05
   4204, 0.000197500005, 5.99999985e-05
   4205, 0.000197500005, 6.50000002e-05
   4206, 0.000197500005, 7.00000019e-05
   4207, 0.000197500005, 7.50000036e-05
   4208, 0.000197500005, 7.9999998e-05
   4209, 0.000197500005, 8.49999997e-05
   4210, 0.000197500005, 9.00000014e-05
   4211, 0.000197500005, 9.50000031e-05
   4212, 0.000197500005, 9.99999975e-05
   4213, 0.000197500005, 0.000104999999
   4214, 0.000197500005, 0.000110000001
   4215, 0.000197500005, 0.000115000003
   4216, 0.000197500005, 0.000119999997
   4217, 0.000197500005, 0.000125000006
   4218, 0.000197500005,      0.00013
   4219, 0.000197500005, 0.000134999995
   4220, 0.000197500005, 0.000140000004
   4221, 0.000197500005, 0.000144999998
   4222, 0.000197500005, 0.000150000007
   4223, 0.000197500005, 0.000155000002
   4224, 0.000197500005, 0.000159999996
   4225, 0.000197500005, 0.000165000005
   4226, 0.000197500005, 0.000169999999
   4227, 0.000197500005, 0.000174999994
   4228, 0.000197500005, 0.000180000003
   4229, 0.000197500005, 0.000184999997
   4230, 0.000197500005, 0.000190000006
   4231, 0.000197500005, 0.000195000001
   4232, 0.000195999994, 4.99999987e-06
   4233, 0.000195999994, 9.99999975e-06
   4234, 0.000195999994, 1.49999996e-05
   4235, 0.000195999994, 1.99999995e-05
   4236, 0.000195999994, 2.49999994e-05
   4237, 0.000195999994, 2.99999992e-05
   4238, 0.000195999994, 3.50000009e-05
   4239, 0.000195999994, 3.9999999e-05
   4240, 0.000195999994, 4.50000007e-05
   4241, 0.000195999994, 4.99999987e-05
   4242, 0.000195999994, 5.50000004e-05
   4243, 0.000195999994, 5.99999985e-05
   4244, 0.000195999994, 6.50000002e-05
   4245, 0.000195999994, 7.00000019e-05
   4246, 0.000195999994, 7.50000036e-05
   4247, 0.000195999994, 7.9999998e-05
   4248, 0.000195999994, 8.49999997e-05
   4249, 0.000195999994, 9.00000014e-05
   4250, 0.000195999994, 9.50000031e-05
   4251, 0.000195999994, 9.99999975e-05
   4252, 0.000195999994, 0.000104999999
   4253, 0.000195999994, 0.000110000001
   4254, 0.000195999994, 0.000115000003
   4255, 0.000195999994, 0.000119999997
   4256, 0.000195999994, 0.000125000006
   4257, 0.000195999994,      0.00013
   4258, 0.000195999994, 0.000134999995
   4259, 0.000195999994, 0.000140000004
   4260, 0.000195999994, 0.000144999998
   4261, 0.000195999994, 0.000150000007
   4262, 0.000195999994, 0.000155000002
   4263, 0.000195999994, 0.000159999996
   4264, 0.000195999994, 0.000165000005
   4265, 0.000195999994, 0.000169999999
   4266, 0.000195999994, 0.000174999994
   4267, 0.000195999994, 0.000180000003
   4268, 0.000195999994, 0.000184999997
   4269, 0.000195999994, 0.000190000006
   4270, 0.000195999994, 0.000195000001
   4271, 0.000194499997, 4.99999987e-06
   4272, 0.000194499997, 9.99999975e-06
   4273, 0.000194499997, 1.49999996e-05
   4274, 0.000194499997, 1.99999995e-05
   4275, 0.000194499997, 2.49999994e-05
   4276, 0.000194499997, 2.99999992e-05
   4277, 0.000194499997, 3.50000009e-05
   4278, 0.000194499997, 3.9999999e-05
   4279, 0.000194499997, 4.50000007e-05
   4280, 0.000194499997, 4.99999987e-05
   4281, 0.000194499997, 5.50000004e-05
   4282, 0.000194499997, 5.99999985e-05
   4283, 0.000194499997, 6.50000002e-05
   4284, 0.000194499997, 7.00000019e-05
   4285, 0.000194499997, 7.50000036e-05
   4286, 0.000194499997, 7.9999998e-05
   4287, 0.000194499997, 8.49999997e-05
   4288, 0.000194499997, 9.00000014e-05
   4289, 0.000194499997, 9.50000031e-05
   4290, 0.000194499997, 9.99999975e-05
   4291, 0.000194499997, 0.000104999999
   4292, 0.000194499997, 0.000110000001
   4293, 0.000194499997, 0.000115000003
   4294, 0.000194499997, 0.000119999997
   4295, 0.000194499997, 0.000125000006
   4296, 0.000194499997,      0.00013
   4297, 0.000194499997, 0.000134999995
   4298, 0.000194499997, 0.000140000004
   4299, 0.000194499997, 0.000144999998
   4300, 0.000194499997, 0.000150000007
   4301, 0.000194499997, 0.000155000002
   4302, 0.000194499997, 0.000159999996
   4303, 0.000194499997, 0.000165000005
   4304, 0.000194499997, 0.000169999999
   4305, 0.000194499997, 0.000174999994
   4306, 0.000194499997, 0.000180000003
   4307, 0.000194499997, 0.000184999997
   4308, 0.000194499997, 0.000190000006
   4309, 0.000194499997, 0.000195000001
   4310,     0.000193, 4.99999987e-06
   4311,     0.000193, 9.99999975e-06
   4312,     0.000193, 1.49999996e-05
   4313,     0.000193, 1.99999995e-05
   4314,     0.000193, 2.49999994e-05
   4315,     0.000193, 2.99999992e-05
   4316,     0.000193, 3.50000009e-05
   4317,     0.000193, 3.9999999e-05
   4318,     0.000193, 4.50000007e-05
   4319,     0.000193, 4.99999987e-05
   4320,     0.000193, 5.50000004e-05
   4321,     0.000193, 5.99999985e-05
   4322,     0.000193, 6.50000002e-05
   4323,     0.000193, 7.00000019e-05
   4324,     0.000193, 7.50000036e-05
   4325,     0.000193, 7.9999998e-05
   4326,     0.000193, 8.49999997e-05
   4327,     0.000193, 9.00000014e-05
   4328,     0.000193, 9.50000031e-05
   4329,     0.000193, 9.99999975e-05
   4330,     0.000193, 0.000104999999
   4331,     0.000193, 0.000110000001
   4332,     0.000193, 0.000115000003
   4333,     0.000193, 0.000119999997
   4334,     0.000193, 0.000125000006
   4335,     0.000193,      0.00013
   4336,     0.000193, 0.000134999995
   4337,     0.000193, 0.000140000004
   4338,     0.000193, 0.000144999998
   4339,     0.000193, 0.000150000007
   4340,     0.000193, 0.000155000002
   4341,     0.000193, 0.000159999996
   4342,     0.000193, 0.000165000005
   4343,     0.000193, 0.000169999999
   4344,     0.000193, 0.000174999994
   4345,     0.000193, 0.000180000003
   4346,     0.000193, 0.000184999997
   4347,     0.000193, 0.000190000006
   4348,     0.000193, 0.000195000001
   4349, 0.000191500003, 4.99999987e-06
   4350, 0.000191500003, 9.99999975e-06
   4351, 0.000191500003, 1.49999996e-05
   4352, 0.000191500003, 1.99999995e-05
   4353, 0.000191500003, 2.49999994e-05
   4354, 0.000191500003, 2.99999992e-05
   4355, 0.000191500003, 3.50000009e-05
   4356, 0.000191500003, 3.9999999e-05
   4357, 0.000191500003, 4.50000007e-05
   4358, 0.000191500003, 4.99999987e-05
   4359, 0.000191500003, 5.50000004e-05
   4360, 0.000191500003, 5.99999985e-05
   4361, 0.000191500003, 6.50000002e-05
   4362, 0.000191500003, 7.00000019e-05
   4363, 0.000191500003, 7.50000036e-05
   4364, 0.000191500003, 7.9999998e-05
   4365, 0.000191500003, 8.49999997e-05
   4366, 0.000191500003, 9.00000014e-05
   4367, 0.000191500003, 9.50000031e-05
   4368, 0.000191500003, 9.99999975e-05
   4369, 0.000191500003, 0.000104999999
   4370, 0.000191500003, 0.000110000001
   4371, 0.000191500003, 0.000115000003
   4372, 0.000191500003, 0.000119999997
   4373, 0.000191500003, 0.000125000006
   4374, 0.000191500003,      0.00013
   4375, 0.000191500003, 0.000134999995
   4376, 0.000191500003, 0.000140000004
   4377, 0.000191500003, 0.000144999998
   4378, 0.000191500003, 0.000150000007
   4379, 0.000191500003, 0.000155000002
   4380, 0.000191500003, 0.000159999996
   4381, 0.000191500003, 0.000165000005
   4382, 0.000191500003, 0.000169999999
   4383, 0.000191500003, 0.000174999994
   4384, 0.000191500003, 0.000180000003
   4385, 0.000191500003, 0.000184999997
   4386, 0.000191500003, 0.000190000006
   4387, 0.000191500003, 0.000195000001
   4388, 0.000190000006, 4.99999987e-06
   4389, 0.000190000006, 9.99999975e-06
   4390, 0.000190000006, 1.49999996e-05
   4391, 0.000190000006, 1.99999995e-05
   4392, 0.000190000006, 2.49999994e-05
   4393, 0.000190000006, 2.99999992e-05
   4394, 0.000190000006, 3.50000009e-05
   4395, 0.000190000006, 3.9999999e-05
   4396, 0.000190000006, 4.50000007e-05
   4397, 0.000190000006, 4.99999987e-05
   4398, 0.000190000006, 5.50000004e-05
   4399, 0.000190000006, 5.99999985e-05
   4400, 0.000190000006, 6.50000002e-05
   4401, 0.000190000006, 7.00000019e-05
   4402, 0.000190000006, 7.50000036e-05
   4403, 0.000190000006, 7.9999998e-05
   4404, 0.000190000006, 8.49999997e-05
   4405, 0.000190000006, 9.00000014e-05
   4406, 0.000190000006, 9.50000031e-05
   4407, 0.000190000006, 9.99999975e-05
   4408, 0.000190000006, 0.000104999999
   4409, 0.000190000006, 0.000110000001
   4410, 0.000190000006, 0.000115000003
   4411, 0.000190000006, 0.000119999997
   4412, 0.000190000006, 0.000125000006
   4413, 0.000190000006,      0.00013
   4414, 0.000190000006, 0.000134999995
   4415, 0.000190000006, 0.000140000004
   4416, 0.000190000006, 0.000144999998
   4417, 0.000190000006, 0.000150000007
   4418, 0.000190000006, 0.000155000002
   4419, 0.000190000006, 0.000159999996
   4420, 0.000190000006, 0.000165000005
   4421, 0.000190000006, 0.000169999999
   4422, 0.000190000006, 0.000174999994
   4423, 0.000190000006, 0.000180000003
   4424, 0.000190000006, 0.000184999997
   4425, 0.000190000006, 0.000190000006
   4426, 0.000190000006, 0.000195000001
   4427, 0.000188499995, 4.99999987e-06
   4428, 0.000188499995, 9.99999975e-06
   4429, 0.000188499995, 1.49999996e-05
   4430, 0.000188499995, 1.99999995e-05
   4431, 0.000188499995, 2.49999994e-05
   4432, 0.000188499995, 2.99999992e-05
   4433, 0.000188499995, 3.50000009e-05
   4434, 0.000188499995, 3.9999999e-05
   4435, 0.000188499995, 4.50000007e-05
   4436, 0.000188499995, 4.99999987e-05
   4437, 0.000188499995, 5.50000004e-05
   4438, 0.000188499995, 5.99999985e-05
   4439, 0.000188499995, 6.50000002e-05
   4440, 0.000188499995, 7.00000019e-05
   4441, 0.000188499995, 7.50000036e-05
   4442, 0.000188499995, 7.9999998e-05
   4443, 0.000188499995, 8.49999997e-05
   4444, 0.000188499995, 9.00000014e-05
   4445, 0.000188499995, 9.50000031e-05
   4446, 0.000188499995, 9.99999975e-05
   4447, 0.000188499995, 0.000104999999
   4448, 0.000188499995, 0.000110000001
   4449, 0.000188499995, 0.000115000003
   4450, 0.000188499995, 0.000119999997
   4451, 0.000188499995, 0.000125000006
   4452, 0.000188499995,      0.00013
   4453, 0.000188499995, 0.000134999995
   4454, 0.000188499995, 0.000140000004
   4455, 0.000188499995, 0.000144999998
   4456, 0.000188499995, 0.000150000007
   4457, 0.000188499995, 0.000155000002
   4458, 0.000188499995, 0.000159999996
   4459, 0.000188499995, 0.000165000005
   4460, 0.000188499995, 0.000169999999
   4461, 0.000188499995, 0.000174999994
   4462, 0.000188499995, 0.000180000003
   4463, 0.000188499995, 0.000184999997
   4464, 0.000188499995, 0.000190000006
   4465, 0.000188499995, 0.000195000001
   4466, 0.000186999998, 4.99999987e-06
   4467, 0.000186999998, 9.99999975e-06
   4468, 0.000186999998, 1.49999996e-05
   4469, 0.000186999998, 1.99999995e-05
   4470, 0.000186999998, 2.49999994e-05
   4471, 0.000186999998, 2.99999992e-05
   4472, 0.000186999998, 3.50000009e-05
   4473, 0.000186999998, 3.9999999e-05
   4474, 0.000186999998, 4.50000007e-05
   4475, 0.000186999998, 4.99999987e-05
   4476, 0.000186999998, 5.50000004e-05
   4477, 0.000186999998, 5.99999985e-05
   4478, 0.000186999998, 6.50000002e-05
   4479, 0.000186999998, 7.00000019e-05
   4480, 0.000186999998, 7.50000036e-05
   4481, 0.000186999998, 7.9999998e-05
   4482, 0.000186999998, 8.49999997e-05
   4483, 0.000186999998, 9.00000014e-05
   4484, 0.000186999998, 9.50000031e-05
   4485, 0.000186999998, 9.99999975e-05
   4486, 0.000186999998, 0.000104999999
   4487, 0.000186999998, 0.000110000001
   4488, 0.000186999998, 0.000115000003
   4489, 0.000186999998, 0.000119999997
   4490, 0.000186999998, 0.000125000006
   4491, 0.000186999998,      0.00013
   4492, 0.000186999998, 0.000134999995
   4493, 0.000186999998, 0.000140000004
   4494, 0.000186999998, 0.000144999998
   4495, 0.000186999998, 0.000150000007
   4496, 0.000186999998, 0.000155000002
   4497, 0.000186999998, 0.000159999996
   4498, 0.000186999998, 0.000165000005
   4499, 0.000186999998, 0.000169999999
   4500, 0.000186999998, 0.000174999994
   4501, 0.000186999998, 0.000180000003
   4502, 0.000186999998, 0.000184999997
   4503, 0.000186999998, 0.000190000006
   4504, 0.000186999998, 0.000195000001
   4505, 0.000185500001, 4.99999987e-06
   4506, 0.000185500001, 9.99999975e-06
   4507, 0.000185500001, 1.49999996e-05
   4508, 0.000185500001, 1.99999995e-05
   4509, 0.000185500001, 2.49999994e-05
   4510, 0.000185500001, 2.99999992e-05
   4511, 0.000185500001, 3.50000009e-05
   4512, 0.000185500001, 3.9999999e-05
   4513, 0.000185500001, 4.50000007e-05
   4514, 0.000185500001, 4.99999987e-05
   4515, 0.000185500001, 5.50000004e-05
   4516, 0.000185500001, 5.99999985e-05
   4517, 0.000185500001, 6.50000002e-05
   4518, 0.000185500001, 7.00000019e-05
   4519, 0.000185500001, 7.50000036e-05
   4520, 0.000185500001, 7.9999998e-05
   4521, 0.000185500001, 8.49999997e-05
   4522, 0.000185500001, 9.00000014e-05
   4523, 0.000185500001, 9.50000031e-05
   4524, 0.000185500001, 9.99999975e-05
   4525, 0.000185500001, 0.000104999999
   4526, 0.000185500001, 0.000110000001
   4527, 0.000185500001, 0.000115000003
   4528, 0.000185500001, 0.000119999997
   4529, 0.000185500001, 0.000125000006
   4530, 0.000185500001,      0.00013
   4531, 0.000185500001, 0.000134999995
   4532, 0.000185500001, 0.000140000004
   4533, 0.000185500001, 0.000144999998
   4534, 0.000185500001, 0.000150000007
   4535, 0.000185500001, 0.000155000002
   4536, 0.000185500001, 0.000159999996
   4537, 0.000185500001, 0.000165000005
   4538, 0.000185500001, 0.000169999999
   4539, 0.000185500001, 0.000174999994
   4540, 0.000185500001, 0.000180000003
   4541, 0.000185500001, 0.000184999997
   4542, 0.000185500001, 0.000190000006
   4543, 0.000185500001, 0.000195000001
   4544, 0.000184000004, 4.99999987e-06
   4545, 0.000184000004, 9.99999975e-06
   4546, 0.000184000004, 1.49999996e-05
   4547, 0.000184000004, 1.99999995e-05
   4548, 0.000184000004, 2.49999994e-05
   4549, 0.000184000004, 2.99999992e-05
   4550, 0.000184000004, 3.50000009e-05
   4551, 0.000184000004, 3.9999999e-05
   4552, 0.000184000004, 4.50000007e-05
   4553, 0.000184000004, 4.99999987e-05
   4554, 0.000184000004, 5.50000004e-05
   4555, 0.000184000004, 5.99999985e-05
   4556, 0.000184000004, 6.50000002e-05
   4557, 0.000184000004, 7.00000019e-05
   4558, 0.000184000004, 7.50000036e-05
   4559, 0.000184000004, 7.9999998e-05
   4560, 0.000184000004, 8.49999997e-05
   4561, 0.000184000004, 9.00000014e-05
   4562, 0.000184000004, 9.50000031e-05
   4563, 0.000184000004, 9.99999975e-05
   4564, 0.000184000004, 0.000104999999
   4565, 0.000184000004, 0.000110000001
   4566, 0.000184000004, 0.000115000003
   4567, 0.000184000004, 0.000119999997
   4568, 0.000184000004, 0.000125000006
   4569, 0.000184000004,      0.00013
   4570, 0.000184000004, 0.000134999995
   4571, 0.000184000004, 0.000140000004
   4572, 0.000184000004, 0.000144999998
   4573, 0.000184000004, 0.000150000007
   4574, 0.000184000004, 0.000155000002
   4575, 0.000184000004, 0.000159999996
   4576, 0.000184000004, 0.000165000005
   4577, 0.000184000004, 0.000169999999
   4578, 0.000184000004, 0.000174999994
   4579, 0.000184000004, 0.000180000003
   4580, 0.000184000004, 0.000184999997
   4581, 0.000184000004, 0.000190000006
   4582, 0.000184000004, 0.000195000001
   4583, 0.000182500007, 4.99999987e-06
   4584, 0.000182500007, 9.99999975e-06
   4585, 0.000182500007, 1.49999996e-05
   4586, 0.000182500007, 1.99999995e-05
   4587, 0.000182500007, 2.49999994e-05
   4588, 0.000182500007, 2.99999992e-05
   4589, 0.000182500007, 3.50000009e-05
   4590, 0.000182500007, 3.9999999e-05
   4591, 0.000182500007, 4.50000007e-05
   4592, 0.000182500007, 4.99999987e-05
   4593, 0.000182500007, 5.50000004e-05
   4594, 0.000182500007, 5.99999985e-05
   4595, 0.000182500007, 6.50000002e-05
   4596, 0.000182500007, 7.00000019e-05
   4597, 0.000182500007, 7.50000036e-05
   4598, 0.000182500007, 7.9999998e-05
   4599, 0.000182500007, 8.49999997e-05
   4600, 0.000182500007, 9.00000014e-05
   4601, 0.000182500007, 9.50000031e-05
   4602, 0.000182500007, 9.99999975e-05
   4603, 0.000182500007, 0.000104999999
   4604, 0.000182500007, 0.000110000001
   4605, 0.000182500007, 0.000115000003
   4606, 0.000182500007, 0.000119999997
   4607, 0.000182500007, 0.000125000006
   4608, 0.000182500007,      0.00013
   4609, 0.000182500007, 0.000134999995
   4610, 0.000182500007, 0.000140000004
   4611, 0.000182500007, 0.000144999998
   4612, 0.000182500007, 0.000150000007
   4613, 0.000182500007, 0.000155000002
   4614, 0.000182500007, 0.000159999996
   4615, 0.000182500007, 0.000165000005
   4616, 0.000182500007, 0.000169999999
   4617, 0.000182500007, 0.000174999994
   4618, 0.000182500007, 0.000180000003
   4619, 0.000182500007, 0.000184999997
   4620, 0.000182500007, 0.000190000006
   4621, 0.000182500007, 0.000195000001
   4622, 0.000180999996, 4.99999987e-06
   4623, 0.000180999996, 9.99999975e-06
   4624, 0.000180999996, 1.49999996e-05
   4625, 0.000180999996, 1.99999995e-05
   4626, 0.000180999996, 2.49999994e-05
   4627, 0.000180999996, 2.99999992e-05
   4628, 0.000180999996, 3.50000009e-05
   4629, 0.000180999996, 3.9999999e-05
   4630, 0.000180999996, 4.50000007e-05
   4631, 0.000180999996, 4.99999987e-05
   4632, 0.000180999996, 5.50000004e-05
   4633, 0.000180999996, 5.99999985e-05
   4634, 0.000180999996, 6.50000002e-05
   4635, 0.000180999996, 7.00000019e-05
   4636, 0.000180999996, 7.50000036e-05
   4637, 0.000180999996, 7.9999998e-05
   4638, 0.000180999996, 8.49999997e-05
   4639, 0.000180999996, 9.00000014e-05
   4640, 0.000180999996, 9.50000031e-05
   4641, 0.000180999996, 9.99999975e-05
   4642, 0.000180999996, 0.000104999999
   4643, 0.000180999996, 0.000110000001
   4644, 0.000180999996, 0.000115000003
   4645, 0.000180999996, 0.000119999997
   4646, 0.000180999996, 0.000125000006
   4647, 0.000180999996,      0.00013
   4648, 0.000180999996, 0.000134999995
   4649, 0.000180999996, 0.000140000004
   4650, 0.000180999996, 0.000144999998
   4651, 0.000180999996, 0.000150000007
   4652, 0.000180999996, 0.000155000002
   4653, 0.000180999996, 0.000159999996
   4654, 0.000180999996, 0.000165000005
   4655, 0.000180999996, 0.000169999999
   4656, 0.000180999996, 0.000174999994
   4657, 0.000180999996, 0.000180000003
   4658, 0.000180999996, 0.000184999997
   4659, 0.000180999996, 0.000190000006
   4660, 0.000180999996, 0.000195000001
   4661, 0.000179499999, 4.99999987e-06
   4662, 0.000179499999, 9.99999975e-06
   4663, 0.000179499999, 1.49999996e-05
   4664, 0.000179499999, 1.99999995e-05
   4665, 0.000179499999, 2.49999994e-05
   4666, 0.000179499999, 2.99999992e-05
   4667, 0.000179499999, 3.50000009e-05
   4668, 0.000179499999, 3.9999999e-05
   4669, 0.000179499999, 4.50000007e-05
   4670, 0.000179499999, 4.99999987e-05
   4671, 0.000179499999, 5.50000004e-05
   4672, 0.000179499999, 5.99999985e-05
   4673, 0.000179499999, 6.50000002e-05
   4674, 0.000179499999, 7.00000019e-05
   4675, 0.000179499999, 7.50000036e-05
   4676, 0.000179499999, 7.9999998e-05
   4677, 0.000179499999, 8.49999997e-05
   4678, 0.000179499999, 9.00000014e-05
   4679, 0.000179499999, 9.50000031e-05
   4680, 0.000179499999, 9.99999975e-05
   4681, 0.000179499999, 0.000104999999
   4682, 0.000179499999, 0.000110000001
   4683, 0.000179499999, 0.000115000003
   4684, 0.000179499999, 0.000119999997
   4685, 0.000179499999, 0.000125000006
   4686, 0.000179499999,      0.00013
   4687, 0.000179499999, 0.000134999995
   4688, 0.000179499999, 0.000140000004
   4689, 0.000179499999, 0.000144999998
   4690, 0.000179499999, 0.000150000007
   4691, 0.000179499999, 0.000155000002
   4692, 0.000179499999, 0.000159999996
   4693, 0.000179499999, 0.000165000005
   4694, 0.000179499999, 0.000169999999
   4695, 0.000179499999, 0.000174999994
   4696, 0.000179499999, 0.000180000003
   4697, 0.000179499999, 0.000184999997
   4698, 0.000179499999, 0.000190000006
   4699, 0.000179499999, 0.000195000001
   4700, 0.000178000002, 4.99999987e-06
   4701, 0.000178000002, 9.99999975e-06
   4702, 0.000178000002, 1.49999996e-05
   4703, 0.000178000002, 1.99999995e-05
   4704, 0.000178000002, 2.49999994e-05
   4705, 0.000178000002, 2.99999992e-05
   4706, 0.000178000002, 3.50000009e-05
   4707, 0.000178000002, 3.9999999e-05
   4708, 0.000178000002, 4.50000007e-05
   4709, 0.000178000002, 4.99999987e-05
   4710, 0.000178000002, 5.50000004e-05
   4711, 0.000178000002, 5.99999985e-05
   4712, 0.000178000002, 6.50000002e-05
   4713, 0.000178000002, 7.00000019e-05
   4714, 0.000178000002, 7.50000036e-05
   4715, 0.000178000002, 7.9999998e-05
   4716, 0.000178000002, 8.49999997e-05
   4717, 0.000178000002, 9.00000014e-05
   4718, 0.000178000002, 9.50000031e-05
   4719, 0.000178000002, 9.99999975e-05
   4720, 0.000178000002, 0.000104999999
   4721, 0.000178000002, 0.000110000001
   4722, 0.000178000002, 0.000115000003
   4723, 0.000178000002, 0.000119999997
   4724, 0.000178000002, 0.000125000006
   4725, 0.000178000002,      0.00013
   4726, 0.000178000002, 0.000134999995
   4727, 0.000178000002, 0.000140000004
   4728, 0.000178000002, 0.000144999998
   4729, 0.000178000002, 0.000150000007
   4730, 0.000178000002, 0.000155000002
   4731, 0.000178000002, 0.000159999996
   4732, 0.000178000002, 0.000165000005
   4733, 0.000178000002, 0.000169999999
   4734, 0.000178000002, 0.000174999994
   4735, 0.000178000002, 0.000180000003
   4736, 0.000178000002, 0.000184999997
   4737, 0.000178000002, 0.000190000006
   4738, 0.000178000002, 0.000195000001
   4739, 0.000176500005, 4.99999987e-06
   4740, 0.000176500005, 9.99999975e-06
   4741, 0.000176500005, 1.49999996e-05
   4742, 0.000176500005, 1.99999995e-05
   4743, 0.000176500005, 2.49999994e-05
   4744, 0.000176500005, 2.99999992e-05
   4745, 0.000176500005, 3.50000009e-05
   4746, 0.000176500005, 3.9999999e-05
   4747, 0.000176500005, 4.50000007e-05
   4748, 0.000176500005, 4.99999987e-05
   4749, 0.000176500005, 5.50000004e-05
   4750, 0.000176500005, 5.99999985e-05
   4751, 0.000176500005, 6.50000002e-05
   4752, 0.000176500005, 7.00000019e-05
   4753, 0.000176500005, 7.50000036e-05
   4754, 0.000176500005, 7.9999998e-05
   4755, 0.000176500005, 8.49999997e-05
   4756, 0.000176500005, 9.00000014e-05
   4757, 0.000176500005, 9.50000031e-05
   4758, 0.000176500005, 9.99999975e-05
   4759, 0.000176500005, 0.000104999999
   4760, 0.000176500005, 0.000110000001
   4761, 0.000176500005, 0.000115000003
   4762, 0.000176500005, 0.000119999997
   4763, 0.000176500005, 0.000125000006
   4764, 0.000176500005,      0.00013
   4765, 0.000176500005, 0.000134999995
   4766, 0.000176500005, 0.000140000004
   4767, 0.000176500005, 0.000144999998
   4768, 0.000176500005, 0.000150000007
   4769, 0.000176500005, 0.000155000002
   4770, 0.000176500005, 0.000159999996
   4771, 0.000176500005, 0.000165000005
   4772, 0.000176500005, 0.000169999999
   4773, 0.000176500005, 0.000174999994
   4774, 0.000176500005, 0.000180000003
   4775, 0.000176500005, 0.000184999997
   4776, 0.000176500005, 0.000190000006
   4777, 0.000176500005, 0.000195000001
   4778, 0.000174999994, 4.99999987e-06
   4779, 0.000174999994, 9.99999975e-06
   4780, 0.000174999994, 1.49999996e-05
   4781, 0.000174999994, 1.99999995e-05
   4782, 0.000174999994, 2.49999994e-05
   4783, 0.000174999994, 2.99999992e-05
   4784, 0.000174999994, 3.50000009e-05
   4785, 0.000174999994, 3.9999999e-05
   4786, 0.000174999994, 4.50000007e-05
   4787, 0.000174999994, 4.99999987e-05
   4788, 0.000174999994, 5.50000004e-05
   4789, 0.000174999994, 5.99999985e-05
   4790, 0.000174999994, 6.50000002e-05
   4791, 0.000174999994, 7.00000019e-05
   4792, 0.000174999994, 7.50000036e-05
   4793, 0.000174999994, 7.9999998e-05
   4794, 0.000174999994, 8.49999997e-05
   4795, 0.000174999994, 9.00000014e-05
   4796, 0.000174999994, 9.50000031e-05
   4797, 0.000174999994, 9.99999975e-05
   4798, 0.000174999994, 0.000104999999
   4799, 0.000174999994, 0.000110000001
   4800, 0.000174999994, 0.000115000003
   4801, 0.000174999994, 0.000119999997
   4802, 0.000174999994, 0.000125000006
   4803, 0.000174999994,      0.00013
   4804, 0.000174999994, 0.000134999995
   4805, 0.000174999994, 0.000140000004
   4806, 0.000174999994, 0.000144999998
   4807, 0.000174999994, 0.000150000007
   4808, 0.000174999994, 0.000155000002
   4809, 0.000174999994, 0.000159999996
   4810, 0.000174999994, 0.000165000005
   4811, 0.000174999994, 0.000169999999
   4812, 0.000174999994, 0.000174999994
   4813, 0.000174999994, 0.000180000003
   4814, 0.000174999994, 0.000184999997
   4815, 0.000174999994, 0.000190000006
   4816, 0.000174999994, 0.000195000001
   4817, 0.000173499997, 4.99999987e-06
   4818, 0.000173499997, 9.99999975e-06
   4819, 0.000173499997, 1.49999996e-05
   4820, 0.000173499997, 1.99999995e-05
   4821, 0.000173499997, 2.49999994e-05
   4822, 0.000173499997, 2.99999992e-05
   4823, 0.000173499997, 3.50000009e-05
   4824, 0.000173499997, 3.9999999e-05
   4825, 0.000173499997, 4.50000007e-05
   4826, 0.000173499997, 4.99999987e-05
   4827, 0.000173499997, 5.50000004e-05
   4828, 0.000173499997, 5.99999985e-05
   4829, 0.000173499997, 6.50000002e-05
   4830, 0.000173499997, 7.00000019e-05
   4831, 0.000173499997, 7.50000036e-05
   4832, 0.000173499997, 7.9999998e-05
   4833, 0.000173499997, 8.49999997e-05
   4834, 0.000173499997, 9.00000014e-05
   4835, 0.000173499997, 9.50000031e-05
   4836, 0.000173499997, 9.99999975e-05
   4837, 0.000173499997, 0.000104999999
   4838, 0.000173499997, 0.000110000001
   4839, 0.000173499997, 0.000115000003
   4840, 0.000173499997, 0.000119999997
   4841, 0.000173499997, 0.000125000006
   4842, 0.000173499997,      0.00013
   4843, 0.000173499997, 0.000134999995
   4844, 0.000173499997, 0.000140000004
   4845, 0.000173499997, 0.000144999998
   4846, 0.000173499997, 0.000150000007
   4847, 0.000173499997, 0.000155000002
   4848, 0.000173499997, 0.000159999996
   4849, 0.000173499997, 0.000165000005
   4850, 0.000173499997, 0.000169999999
   4851, 0.000173499997, 0.000174999994
   4852, 0.000173499997, 0.000180000003
   4853, 0.000173499997, 0.000184999997
   4854, 0.000173499997, 0.000190000006
   4855, 0.000173499997, 0.000195000001
   4856,     0.000172, 4.99999987e-06
   4857,     0.000172, 9.99999975e-06
   4858,     0.000172, 1.49999996e-05
   4859,     0.000172, 1.99999995e-05
   4860,     0.000172, 2.49999994e-05
   4861,     0.000172, 2.99999992e-05
   4862,     0.000172, 3.50000009e-05
   4863,     0.000172, 3.9999999e-05
   4864,     0.000172, 4.50000007e-05
   4865,     0.000172, 4.99999987e-05
   4866,     0.000172, 5.50000004e-05
   4867,     0.000172, 5.99999985e-05
   4868,     0.000172, 6.50000002e-05
   4869,     0.000172, 7.00000019e-05
   4870,     0.000172, 7.50000036e-05
   4871,     0.000172, 7.9999998e-05
   4872,     0.000172, 8.49999997e-05
   4873,     0.000172, 9.00000014e-05
   4874,     0.000172, 9.50000031e-05
   4875,     0.000172, 9.99999975e-05
   4876,     0.000172, 0.000104999999
   4877,     0.000172, 0.000110000001
   4878,     0.000172, 0.000115000003
   4879,     0.000172, 0.000119999997
   4880,     0.000172, 0.000125000006
   4881,     0.000172,      0.00013
   4882,     0.000172, 0.000134999995
   4883,     0.000172, 0.000140000004
   4884,     0.000172, 0.000144999998
   4885,     0.000172, 0.000150000007
   4886,     0.000172, 0.000155000002
   4887,     0.000172, 0.000159999996
   4888,     0.000172, 0.000165000005
   4889,     0.000172, 0.000169999999
   4890,     0.000172, 0.000174999994
   4891,     0.000172, 0.000180000003
   4892,     0.000172, 0.000184999997
   4893,     0.000172, 0.000190000006
   4894,     0.000172, 0.000195000001
   4895, 0.000170500003, 4.99999987e-06
   4896, 0.000170500003, 9.99999975e-06
   4897, 0.000170500003, 1.49999996e-05
   4898, 0.000170500003, 1.99999995e-05
   4899, 0.000170500003, 2.49999994e-05
   4900, 0.000170500003, 2.99999992e-05
   4901, 0.000170500003, 3.50000009e-05
   4902, 0.000170500003, 3.9999999e-05
   4903, 0.000170500003, 4.50000007e-05
   4904, 0.000170500003, 4.99999987e-05
   4905, 0.000170500003, 5.50000004e-05
   4906, 0.000170500003, 5.99999985e-05
   4907, 0.000170500003, 6.50000002e-05
   4908, 0.000170500003, 7.00000019e-05
   4909, 0.000170500003, 7.50000036e-05
   4910, 0.000170500003, 7.9999998e-05
   4911, 0.000170500003, 8.49999997e-05
   4912, 0.000170500003, 9.00000014e-05
   4913, 0.000170500003, 9.50000031e-05
   4914, 0.000170500003, 9.99999975e-05
   4915, 0.000170500003, 0.000104999999
   4916, 0.000170500003, 0.000110000001
   4917, 0.000170500003, 0.000115000003
   4918, 0.000170500003, 0.000119999997
   4919, 0.000170500003, 0.000125000006
   4920, 0.000170500003,      0.00013
   4921, 0.000170500003, 0.000134999995
   4922, 0.000170500003, 0.000140000004
   4923, 0.000170500003, 0.000144999998
   4924, 0.000170500003, 0.000150000007
   4925, 0.000170500003, 0.000155000002
   4926, 0.000170500003, 0.000159999996
   4927, 0.000170500003, 0.000165000005
   4928, 0.000170500003, 0.000169999999
   4929, 0.000170500003, 0.000174999994
   4930, 0.000170500003, 0.000180000003
   4931, 0.000170500003, 0.000184999997
   4932, 0.000170500003, 0.000190000006
   4933, 0.000170500003, 0.000195000001
   4934, 0.000169000006, 4.99999987e-06
   4935, 0.000169000006, 9.99999975e-06
   4936, 0.000169000006, 1.49999996e-05
   4937, 0.000169000006, 1.99999995e-05
   4938, 0.000169000006, 2.49999994e-05
   4939, 0.000169000006, 2.99999992e-05
   4940, 0.000169000006, 3.50000009e-05
   4941, 0.000169000006, 3.9999999e-05
   4942, 0.000169000006, 4.50000007e-05
   4943, 0.000169000006, 4.99999987e-05
   4944, 0.000169000006, 5.50000004e-05
   4945, 0.000169000006, 5.99999985e-05
   4946, 0.000169000006, 6.50000002e-05
   4947, 0.000169000006, 7.00000019e-05
   4948, 0.000169000006, 7.50000036e-05
   4949, 0.000169000006, 7.9999998e-05
   4950, 0.000169000006, 8.49999997e-05
   4951, 0.000169000006, 9.00000014e-05
   4952, 0.000169000006, 9.50000031e-05
   4953, 0.000169000006, 9.99999975e-05
   4954, 0.000169000006, 0.000104999999
   4955, 0.000169000006, 0.000110000001
   4956, 0.000169000006, 0.000115000003
   4957, 0.000169000006, 0.000119999997
   4958, 0.000169000006, 0.000125000006
   4959, 0.000169000006,      0.00013
   4960, 0.000169000006, 0.000134999995
   4961, 0.000169000006, 0.000140000004
   4962, 0.000169000006, 0.000144999998
   4963, 0.000169000006, 0.000150000007
   4964, 0.000169000006, 0.000155000002
   4965, 0.000169000006, 0.000159999996
   4966, 0.000169000006, 0.000165000005
   4967, 0.000169000006, 0.000169999999
   4968, 0.000169000006, 0.000174999994
   4969, 0.000169000006, 0.000180000003
   4970, 0.000169000006, 0.000184999997
   4971, 0.000169000006, 0.000190000006
   4972, 0.000169000006, 0.000195000001
   4973, 0.000167499995, 4.99999987e-06
   4974, 0.000167499995, 9.99999975e-06
   4975, 0.000167499995, 1.49999996e-05
   4976, 0.000167499995, 1.99999995e-05
   4977, 0.000167499995, 2.49999994e-05
   4978, 0.000167499995, 2.99999992e-05
   4979, 0.000167499995, 3.50000009e-05
   4980, 0.000167499995, 3.9999999e-05
   4981, 0.000167499995, 4.50000007e-05
   4982, 0.000167499995, 4.99999987e-05
   4983, 0.000167499995, 5.50000004e-05
   4984, 0.000167499995, 5.99999985e-05
   4985, 0.000167499995, 6.50000002e-05
   4986, 0.000167499995, 7.00000019e-05
   4987, 0.000167499995, 7.50000036e-05
   4988, 0.000167499995, 7.9999998e-05
   4989, 0.000167499995, 8.49999997e-05
   4990, 0.000167499995, 9.00000014e-05
   4991, 0.000167499995, 9.50000031e-05
   4992, 0.000167499995, 9.99999975e-05
   4993, 0.000167499995, 0.000104999999
   4994, 0.000167499995, 0.000110000001
   4995, 0.000167499995, 0.000115000003
   4996, 0.000167499995, 0.000119999997
   4997, 0.000167499995, 0.000125000006
   4998, 0.000167499995,      0.00013
   4999, 0.000167499995, 0.000134999995
   5000, 0.000167499995, 0.000140000004
   5001, 0.000167499995, 0.000144999998
   5002, 0.000167499995, 0.000150000007
   5003, 0.000167499995, 0.000155000002
   5004, 0.000167499995, 0.000159999996
   5005, 0.000167499995, 0.000165000005
   5006, 0.000167499995, 0.000169999999
   5007, 0.000167499995, 0.000174999994
   5008, 0.000167499995, 0.000180000003
   5009, 0.000167499995, 0.000184999997
   5010, 0.000167499995, 0.000190000006
   5011, 0.000167499995, 0.000195000001
   5012, 0.000165999998, 4.99999987e-06
   5013, 0.000165999998, 9.99999975e-06
   5014, 0.000165999998, 1.49999996e-05
   5015, 0.000165999998, 1.99999995e-05
   5016, 0.000165999998, 2.49999994e-05
   5017, 0.000165999998, 2.99999992e-05
   5018, 0.000165999998, 3.50000009e-05
   5019, 0.000165999998, 3.9999999e-05
   5020, 0.000165999998, 4.50000007e-05
   5021, 0.000165999998, 4.99999987e-05
   5022, 0.000165999998, 5.50000004e-05
   5023, 0.000165999998, 5.99999985e-05
   5024, 0.000165999998, 6.50000002e-05
   5025, 0.000165999998, 7.00000019e-05
   5026, 0.000165999998, 7.50000036e-05
   5027, 0.000165999998, 7.9999998e-05
   5028, 0.000165999998, 8.49999997e-05
   5029, 0.000165999998, 9.00000014e-05
   5030, 0.000165999998, 9.50000031e-05
   5031, 0.000165999998, 9.99999975e-05
   5032, 0.000165999998, 0.000104999999
   5033, 0.000165999998, 0.000110000001
   5034, 0.000165999998, 0.000115000003
   5035, 0.000165999998, 0.000119999997
   5036, 0.000165999998, 0.000125000006
   5037, 0.000165999998,      0.00013
   5038, 0.000165999998, 0.000134999995
   5039, 0.000165999998, 0.000140000004
   5040, 0.000165999998, 0.000144999998
   5041, 0.000165999998, 0.000150000007
   5042, 0.000165999998, 0.000155000002
   5043, 0.000165999998, 0.000159999996
   5044, 0.000165999998, 0.000165000005
   5045, 0.000165999998, 0.000169999999
   5046, 0.000165999998, 0.000174999994
   5047, 0.000165999998, 0.000180000003
   5048, 0.000165999998, 0.000184999997
   5049, 0.000165999998, 0.000190000006
   5050, 0.000165999998, 0.000195000001
   5051, 0.000164500001, 4.99999987e-06
   5052, 0.000164500001, 9.99999975e-06
   5053, 0.000164500001, 1.49999996e-05
   5054, 0.000164500001, 1.99999995e-05
   5055, 0.000164500001, 2.49999994e-05
   5056, 0.000164500001, 2.99999992e-05
   5057, 0.000164500001, 3.50000009e-05
   5058, 0.000164500001, 3.9999999e-05
   5059, 0.000164500001, 4.50000007e-05
   5060, 0.000164500001, 4.99999987e-05
   5061, 0.000164500001, 5.50000004e-05
   5062, 0.000164500001, 5.99999985e-05
   5063, 0.000164500001, 6.50000002e-05
   5064, 0.000164500001, 7.00000019e-05
   5065, 0.000164500001, 7.50000036e-05
   5066, 0.000164500001, 7.9999998e-05
   5067, 0.000164500001, 8.49999997e-05
   5068, 0.000164500001, 9.00000014e-05
   5069, 0.000164500001, 9.50000031e-05
   5070, 0.000164500001, 9.99999975e-05
   5071, 0.000164500001, 0.000104999999
   5072, 0.000164500001, 0.000110000001
   5073, 0.000164500001, 0.000115000003
   5074, 0.000164500001, 0.000119999997
   5075, 0.000164500001, 0.000125000006
   5076, 0.000164500001,      0.00013
   5077, 0.000164500001, 0.000134999995
   5078, 0.000164500001, 0.000140000004
   5079, 0.000164500001, 0.000144999998
   5080, 0.000164500001, 0.000150000007
   5081, 0.000164500001, 0.000155000002
   5082, 0.000164500001, 0.000159999996
   5083, 0.000164500001, 0.000165000005
   5084, 0.000164500001, 0.000169999999
   5085, 0.000164500001, 0.000174999994
   5086, 0.000164500001, 0.000180000003
   5087, 0.000164500001, 0.000184999997
   5088, 0.000164500001, 0.000190000006
   5089, 0.000164500001, 0.000195000001
   5090, 0.000163000004, 4.99999987e-06
   5091, 0.000163000004, 9.99999975e-06
   5092, 0.000163000004, 1.49999996e-05
   5093, 0.000163000004, 1.99999995e-05
   5094, 0.000163000004, 2.49999994e-05
   5095, 0.000163000004, 2.99999992e-05
   5096, 0.000163000004, 3.50000009e-05
   5097, 0.000163000004, 3.9999999e-05
   5098, 0.000163000004, 4.50000007e-05
   5099, 0.000163000004, 4.99999987e-05
   5100, 0.000163000004, 5.50000004e-05
   5101, 0.000163000004, 5.99999985e-05
   5102, 0.000163000004, 6.50000002e-05
   5103, 0.000163000004, 7.00000019e-05
   5104, 0.000163000004, 7.50000036e-05
   5105, 0.000163000004, 7.9999998e-05
   5106, 0.000163000004, 8.49999997e-05
   5107, 0.000163000004, 9.00000014e-05
   5108, 0.000163000004, 9.50000031e-05
   5109, 0.000163000004, 9.99999975e-05
   5110, 0.000163000004, 0.000104999999
   5111, 0.000163000004, 0.000110000001
   5112, 0.000163000004, 0.000115000003
   5113, 0.000163000004, 0.000119999997
   5114, 0.000163000004, 0.000125000006
   5115, 0.000163000004,      0.00013
   5116, 0.000163000004, 0.000134999995
   5117, 0.000163000004, 0.000140000004
   5118, 0.000163000004, 0.000144999998
   5119, 0.000163000004, 0.000150000007
   5120, 0.000163000004, 0.000155000002
   5121, 0.000163000004, 0.000159999996
   5122, 0.000163000004, 0.000165000005
   5123, 0.000163000004, 0.000169999999
   5124, 0.000163000004, 0.000174999994
   5125, 0.000163000004, 0.000180000003
   5126, 0.000163000004, 0.000184999997
   5127, 0.000163000004, 0.000190000006
   5128, 0.000163000004, 0.000195000001
   5129, 0.000161499993, 4.99999987e-06
   5130, 0.000161499993, 9.99999975e-06
   5131, 0.000161499993, 1.49999996e-05
   5132, 0.000161499993, 1.99999995e-05
   5133, 0.000161499993, 2.49999994e-05
   5134, 0.000161499993, 2.99999992e-05
   5135, 0.000161499993, 3.50000009e-05
   5136, 0.000161499993, 3.9999999e-05
   5137, 0.000161499993, 4.50000007e-05
   5138, 0.000161499993, 4.99999987e-05
   5139, 0.000161499993, 5.50000004e-05
   5140, 0.000161499993, 5.99999985e-05
   5141, 0.000161499993, 6.50000002e-05
   5142, 0.000161499993, 7.00000019e-05
   5143, 0.000161499993, 7.50000036e-05
   5144, 0.000161499993, 7.9999998e-05
   5145, 0.000161499993, 8.49999997e-05
   5146, 0.000161499993, 9.00000014e-05
   5147, 0.000161499993, 9.50000031e-05
   5148, 0.000161499993, 9.99999975e-05
   5149, 0.000161499993, 0.000104999999
   5150, 0.000161499993, 0.000110000001
   5151, 0.000161499993, 0.000115000003
   5152, 0.000161499993, 0.000119999997
   5153, 0.000161499993, 0.000125000006
   5154, 0.000161499993,      0.00013
   5155, 0.000161499993, 0.000134999995
   5156, 0.000161499993, 0.000140000004
   5157, 0.000161499993, 0.000144999998
   5158, 0.000161499993, 0.000150000007
   5159, 0.000161499993, 0.000155000002
   5160, 0.000161499993, 0.000159999996
   5161, 0.000161499993, 0.000165000005
   5162, 0.000161499993, 0.000169999999
   5163, 0.000161499993, 0.000174999994
   5164, 0.000161499993, 0.000180000003
   5165, 0.000161499993, 0.000184999997
   5166, 0.000161499993, 0.000190000006
   5167, 0.000161499993, 0.000195000001
   5168, 0.000155000002, 4.99999987e-06
   5169, 0.000155000002, 9.99999975e-06
   5170, 0.000155000002, 1.49999996e-05
   5171, 0.000155000002, 1.99999995e-05
   5172, 0.000155000002, 2.49999994e-05
   5173, 0.000155000002, 2.99999992e-05
   5174, 0.000155000002, 3.50000009e-05
   5175, 0.000155000002, 3.9999999e-05
   5176, 0.000155000002, 4.50000007e-05
   5177, 0.000155000002, 4.99999987e-05
   5178, 0.000155000002, 5.50000004e-05
   5179, 0.000155000002, 5.99999985e-05
   5180, 0.000155000002, 6.50000002e-05
   5181, 0.000155000002, 7.00000019e-05
   5182, 0.000155000002, 7.50000036e-05
   5183, 0.000155000002, 7.9999998e-05
   5184, 0.000155000002, 8.49999997e-05
   5185, 0.000155000002, 9.00000014e-05
   5186, 0.000155000002, 9.50000031e-05
   5187, 0.000155000002, 9.99999975e-05
   5188, 0.000155000002, 0.000104999999
   5189, 0.000155000002, 0.000110000001
   5190, 0.000155000002, 0.000115000003
   5191, 0.000155000002, 0.000119999997
   5192, 0.000155000002, 0.000125000006
   5193, 0.000155000002,      0.00013
   5194, 0.000155000002, 0.000134999995
   5195, 0.000155000002, 0.000140000004
   5196, 0.000155000002, 0.000144999998
   5197, 0.000155000002, 0.000150000007
   5198, 0.000155000002, 0.000155000002
   5199, 0.000155000002, 0.000159999996
   5200, 0.000155000002, 0.000165000005
   5201, 0.000155000002, 0.000169999999
   5202, 0.000155000002, 0.000174999994
   5203, 0.000155000002, 0.000180000003
   5204, 0.000155000002, 0.000184999997
   5205, 0.000155000002, 0.000190000006
   5206, 0.000155000002, 0.000195000001
   5207, 0.000150000007, 4.99999987e-06
   5208, 0.000150000007, 9.99999975e-06
   5209, 0.000150000007, 1.49999996e-05
   5210, 0.000150000007, 1.99999995e-05
   5211, 0.000150000007, 2.49999994e-05
   5212, 0.000150000007, 2.99999992e-05
   5213, 0.000150000007, 3.50000009e-05
   5214, 0.000150000007, 3.9999999e-05
   5215, 0.000150000007, 4.50000007e-05
   5216, 0.000150000007, 4.99999987e-05
   5217, 0.000150000007, 5.50000004e-05
   5218, 0.000150000007, 5.99999985e-05
   5219, 0.000150000007, 6.50000002e-05
   5220, 0.000150000007, 7.00000019e-05
   5221, 0.000150000007, 7.50000036e-05
   5222, 0.000150000007, 7.9999998e-05
   5223, 0.000150000007, 8.49999997e-05
   5224, 0.000150000007, 9.00000014e-05
   5225, 0.000150000007, 9.50000031e-05
   5226, 0.000150000007, 9.99999975e-05
   5227, 0.000150000007, 0.000104999999
   5228, 0.000150000007, 0.000110000001
   5229, 0.000150000007, 0.000115000003
   5230, 0.000150000007, 0.000119999997
   5231, 0.000150000007, 0.000125000006
   5232, 0.000150000007,      0.00013
   5233, 0.000150000007, 0.000134999995
   5234, 0.000150000007, 0.000140000004
   5235, 0.000150000007, 0.000144999998
   5236, 0.000150000007, 0.000150000007
   5237, 0.000150000007, 0.000155000002
   5238, 0.000150000007, 0.000159999996
   5239, 0.000150000007, 0.000165000005
   5240, 0.000150000007, 0.000169999999
   5241, 0.000150000007, 0.000174999994
   5242, 0.000150000007, 0.000180000003
   5243, 0.000150000007, 0.000184999997
   5244, 0.000150000007, 0.000190000006
   5245, 0.000150000007, 0.000195000001
   5246, 0.000144999998, 4.99999987e-06
   5247, 0.000144999998, 9.99999975e-06
   5248, 0.000144999998, 1.49999996e-05
   5249, 0.000144999998, 1.99999995e-05
   5250, 0.000144999998, 2.49999994e-05
   5251, 0.000144999998, 2.99999992e-05
   5252, 0.000144999998, 3.50000009e-05
   5253, 0.000144999998, 3.9999999e-05
   5254, 0.000144999998, 4.50000007e-05
   5255, 0.000144999998, 4.99999987e-05
   5256, 0.000144999998, 5.50000004e-05
   5257, 0.000144999998, 5.99999985e-05
   5258, 0.000144999998, 6.50000002e-05
   5259, 0.000144999998, 7.00000019e-05
   5260, 0.000144999998, 7.50000036e-05
   5261, 0.000144999998, 7.9999998e-05
   5262, 0.000144999998, 8.49999997e-05
   5263, 0.000144999998, 9.00000014e-05
   5264, 0.000144999998, 9.50000031e-05
   5265, 0.000144999998, 9.99999975e-05
   5266, 0.000144999998, 0.000104999999
   5267, 0.000144999998, 0.000110000001
   5268, 0.000144999998, 0.000115000003
   5269, 0.000144999998, 0.000119999997
   5270, 0.000144999998, 0.000125000006
   5271, 0.000144999998,      0.00013
   5272, 0.000144999998, 0.000134999995
   5273, 0.000144999998, 0.000140000004
   5274, 0.000144999998, 0.000144999998
   5275, 0.000144999998, 0.000150000007
   5276, 0.000144999998, 0.000155000002
   5277, 0.000144999998, 0.000159999996
   5278, 0.000144999998, 0.000165000005
   5279, 0.000144999998, 0.000169999999
   5280, 0.000144999998, 0.000174999994
   5281, 0.000144999998, 0.000180000003
   5282, 0.000144999998, 0.000184999997
   5283, 0.000144999998, 0.000190000006
   5284, 0.000144999998, 0.000195000001
   5285, 0.000140000004, 4.99999987e-06
   5286, 0.000140000004, 9.99999975e-06
   5287, 0.000140000004, 1.49999996e-05
   5288, 0.000140000004, 1.99999995e-05
   5289, 0.000140000004, 2.49999994e-05
   5290, 0.000140000004, 2.99999992e-05
   5291, 0.000140000004, 3.50000009e-05
   5292, 0.000140000004, 3.9999999e-05
   5293, 0.000140000004, 4.50000007e-05
   5294, 0.000140000004, 4.99999987e-05
   5295, 0.000140000004, 5.50000004e-05
   5296, 0.000140000004, 5.99999985e-05
   5297, 0.000140000004, 6.50000002e-05
   5298, 0.000140000004, 7.00000019e-05
   5299, 0.000140000004, 7.50000036e-05
   5300, 0.000140000004, 7.9999998e-05
   5301, 0.000140000004, 8.49999997e-05
   5302, 0.000140000004, 9.00000014e-05
   5303, 0.000140000004, 9.50000031e-05
   5304, 0.000140000004, 9.99999975e-05
   5305, 0.000140000004, 0.000104999999
   5306, 0.000140000004, 0.000110000001
   5307, 0.000140000004, 0.000115000003
   5308, 0.000140000004, 0.000119999997
   5309, 0.000140000004, 0.000125000006
   5310, 0.000140000004,      0.00013
   5311, 0.000140000004, 0.000134999995
   5312, 0.000140000004, 0.000140000004
   5313, 0.000140000004, 0.000144999998
   5314, 0.000140000004, 0.000150000007
   5315, 0.000140000004, 0.000155000002
   5316, 0.000140000004, 0.000159999996
   5317, 0.000140000004, 0.000165000005
   5318, 0.000140000004, 0.000169999999
   5319, 0.000140000004, 0.000174999994
   5320, 0.000140000004, 0.000180000003
   5321, 0.000140000004, 0.000184999997
   5322, 0.000140000004, 0.000190000006
   5323, 0.000140000004, 0.000195000001
   5324, 0.000134999995, 4.99999987e-06
   5325, 0.000134999995, 9.99999975e-06
   5326, 0.000134999995, 1.49999996e-05
   5327, 0.000134999995, 1.99999995e-05
   5328, 0.000134999995, 2.49999994e-05
   5329, 0.000134999995, 2.99999992e-05
   5330, 0.000134999995, 3.50000009e-05
   5331, 0.000134999995, 3.9999999e-05
   5332, 0.000134999995, 4.50000007e-05
   5333, 0.000134999995, 4.99999987e-05
   5334, 0.000134999995, 5.50000004e-05
   5335, 0.000134999995, 5.99999985e-05
   5336, 0.000134999995, 6.50000002e-05
   5337, 0.000134999995, 7.00000019e-05
   5338, 0.000134999995, 7.50000036e-05
   5339, 0.000134999995, 7.9999998e-05
   5340, 0.000134999995, 8.49999997e-05
   5341, 0.000134999995, 9.00000014e-05
   5342, 0.000134999995, 9.50000031e-05
   5343, 0.000134999995, 9.99999975e-05
   5344, 0.000134999995, 0.000104999999
   5345, 0.000134999995, 0.000110000001
   5346, 0.000134999995, 0.000115000003
   5347, 0.000134999995, 0.000119999997
   5348, 0.000134999995, 0.000125000006
   5349, 0.000134999995,      0.00013
   5350, 0.000134999995, 0.000134999995
   5351, 0.000134999995, 0.000140000004
   5352, 0.000134999995, 0.000144999998
   5353, 0.000134999995, 0.000150000007
   5354, 0.000134999995, 0.000155000002
   5355, 0.000134999995, 0.000159999996
   5356, 0.000134999995, 0.000165000005
   5357, 0.000134999995, 0.000169999999
   5358, 0.000134999995, 0.000174999994
   5359, 0.000134999995, 0.000180000003
   5360, 0.000134999995, 0.000184999997
   5361, 0.000134999995, 0.000190000006
   5362, 0.000134999995, 0.000195000001
   5363,      0.00013, 4.99999987e-06
   5364,      0.00013, 9.99999975e-06
   5365,      0.00013, 1.49999996e-05
   5366,      0.00013, 1.99999995e-05
   5367,      0.00013, 2.49999994e-05
   5368,      0.00013, 2.99999992e-05
   5369,      0.00013, 3.50000009e-05
   5370,      0.00013, 3.9999999e-05
   5371,      0.00013, 4.50000007e-05
   5372,      0.00013, 4.99999987e-05
   5373,      0.00013, 5.50000004e-05
   5374,      0.00013, 5.99999985e-05
   5375,      0.00013, 6.50000002e-05
   5376,      0.00013, 7.00000019e-05
   5377,      0.00013, 7.50000036e-05
   5378,      0.00013, 7.9999998e-05
   5379,      0.00013, 8.49999997e-05
   5380,      0.00013, 9.00000014e-05
   5381,      0.00013, 9.50000031e-05
   5382,      0.00013, 9.99999975e-05
   5383,      0.00013, 0.000104999999
   5384,      0.00013, 0.000110000001
   5385,      0.00013, 0.000115000003
   5386,      0.00013, 0.000119999997
   5387,      0.00013, 0.000125000006
   5388,      0.00013,      0.00013
   5389,      0.00013, 0.000134999995
   5390,      0.00013, 0.000140000004
   5391,      0.00013, 0.000144999998
   5392,      0.00013, 0.000150000007
   5393,      0.00013, 0.000155000002
   5394,      0.00013, 0.000159999996
   5395,      0.00013, 0.000165000005
   5396,      0.00013, 0.000169999999
   5397,      0.00013, 0.000174999994
   5398,      0.00013, 0.000180000003
   5399,      0.00013, 0.000184999997
   5400,      0.00013, 0.000190000006
   5401,      0.00013, 0.000195000001
   5402, 0.000125000006, 4.99999987e-06
   5403, 0.000125000006, 9.99999975e-06
   5404, 0.000125000006, 1.49999996e-05
   5405, 0.000125000006, 1.99999995e-05
   5406, 0.000125000006, 2.49999994e-05
   5407, 0.000125000006, 2.99999992e-05
   5408, 0.000125000006, 3.50000009e-05
   5409, 0.000125000006, 3.9999999e-05
   5410, 0.000125000006, 4.50000007e-05
   5411, 0.000125000006, 4.99999987e-05
   5412, 0.000125000006, 5.50000004e-05
   5413, 0.000125000006, 5.99999985e-05
   5414, 0.000125000006, 6.50000002e-05
   5415, 0.000125000006, 7.00000019e-05
   5416, 0.000125000006, 7.50000036e-05
   5417, 0.000125000006, 7.9999998e-05
   5418, 0.000125000006, 8.49999997e-05
   5419, 0.000125000006, 9.00000014e-05
   5420, 0.000125000006, 9.50000031e-05
   5421, 0.000125000006, 9.99999975e-05
   5422, 0.000125000006, 0.000104999999
   5423, 0.000125000006, 0.000110000001
   5424, 0.000125000006, 0.000115000003
   5425, 0.000125000006, 0.000119999997
   5426, 0.000125000006, 0.000125000006
   5427, 0.000125000006,      0.00013
   5428, 0.000125000006, 0.000134999995
   5429, 0.000125000006, 0.000140000004
   5430, 0.000125000006, 0.000144999998
   5431, 0.000125000006, 0.000150000007
   5432, 0.000125000006, 0.000155000002
   5433, 0.000125000006, 0.000159999996
   5434, 0.000125000006, 0.000165000005
   5435, 0.000125000006, 0.000169999999
   5436, 0.000125000006, 0.000174999994
   5437, 0.000125000006, 0.000180000003
   5438, 0.000125000006, 0.000184999997
   5439, 0.000125000006, 0.000190000006
   5440, 0.000125000006, 0.000195000001
   5441, 0.000119999997, 4.99999987e-06
   5442, 0.000119999997, 9.99999975e-06
   5443, 0.000119999997, 1.49999996e-05
   5444, 0.000119999997, 1.99999995e-05
   5445, 0.000119999997, 2.49999994e-05
   5446, 0.000119999997, 2.99999992e-05
   5447, 0.000119999997, 3.50000009e-05
   5448, 0.000119999997, 3.9999999e-05
   5449, 0.000119999997, 4.50000007e-05
   5450, 0.000119999997, 4.99999987e-05
   5451, 0.000119999997, 5.50000004e-05
   5452, 0.000119999997, 5.99999985e-05
   5453, 0.000119999997, 6.50000002e-05
   5454, 0.000119999997, 7.00000019e-05
   5455, 0.000119999997, 7.50000036e-05
   5456, 0.000119999997, 7.9999998e-05
   5457, 0.000119999997, 8.49999997e-05
   5458, 0.000119999997, 9.00000014e-05
   5459, 0.000119999997, 9.50000031e-05
   5460, 0.000119999997, 9.99999975e-05
   5461, 0.000119999997, 0.000104999999
   5462, 0.000119999997, 0.000110000001
   5463, 0.000119999997, 0.000115000003
   5464, 0.000119999997, 0.000119999997
   5465, 0.000119999997, 0.000125000006
   5466, 0.000119999997,      0.00013
   5467, 0.000119999997, 0.000134999995
   5468, 0.000119999997, 0.000140000004
   5469, 0.000119999997, 0.000144999998
   5470, 0.000119999997, 0.000150000007
   5471, 0.000119999997, 0.000155000002
   5472, 0.000119999997, 0.000159999996
   5473, 0.000119999997, 0.000165000005
   5474, 0.000119999997, 0.000169999999
   5475, 0.000119999997, 0.000174999994
   5476, 0.000119999997, 0.000180000003
   5477, 0.000119999997, 0.000184999997
   5478, 0.000119999997, 0.000190000006
   5479, 0.000119999997, 0.000195000001
   5480, 0.000115000003, 4.99999987e-06
   5481, 0.000115000003, 9.99999975e-06
   5482, 0.000115000003, 1.49999996e-05
   5483, 0.000115000003, 1.99999995e-05
   5484, 0.000115000003, 2.49999994e-05
   5485, 0.000115000003, 2.99999992e-05
   5486, 0.000115000003, 3.50000009e-05
   5487, 0.000115000003, 3.9999999e-05
   5488, 0.000115000003, 4.50000007e-05
   5489, 0.000115000003, 4.99999987e-05
   5490, 0.000115000003, 5.50000004e-05
   5491, 0.000115000003, 5.99999985e-05
   5492, 0.000115000003, 6.50000002e-05
   5493, 0.000115000003, 7.00000019e-05
   5494, 0.000115000003, 7.50000036e-05
   5495, 0.000115000003, 7.9999998e-05
   5496, 0.000115000003, 8.49999997e-05
   5497, 0.000115000003, 9.00000014e-05
   5498, 0.000115000003, 9.50000031e-05
   5499, 0.000115000003, 9.99999975e-05
   5500, 0.000115000003, 0.000104999999
   5501, 0.000115000003, 0.000110000001
   5502, 0.000115000003, 0.000115000003
   5503, 0.000115000003, 0.000119999997
   5504, 0.000115000003, 0.000125000006
   5505, 0.000115000003,      0.00013
   5506, 0.000115000003, 0.000134999995
   5507, 0.000115000003, 0.000140000004
   5508, 0.000115000003, 0.000144999998
   5509, 0.000115000003, 0.000150000007
   5510, 0.000115000003, 0.000155000002
   5511, 0.000115000003, 0.000159999996
   5512, 0.000115000003, 0.000165000005
   5513, 0.000115000003, 0.000169999999
   5514, 0.000115000003, 0.000174999994
   5515, 0.000115000003, 0.000180000003
   5516, 0.000115000003, 0.000184999997
   5517, 0.000115000003, 0.000190000006
   5518, 0.000115000003, 0.000195000001
   5519, 0.000110000001, 4.99999987e-06
   5520, 0.000110000001, 9.99999975e-06
   5521, 0.000110000001, 1.49999996e-05
   5522, 0.000110000001, 1.99999995e-05
   5523, 0.000110000001, 2.49999994e-05
   5524, 0.000110000001, 2.99999992e-05
   5525, 0.000110000001, 3.50000009e-05
   5526, 0.000110000001, 3.9999999e-05
   5527, 0.000110000001, 4.50000007e-05
   5528, 0.000110000001, 4.99999987e-05
   5529, 0.000110000001, 5.50000004e-05
   5530, 0.000110000001, 5.99999985e-05
   5531, 0.000110000001, 6.50000002e-05
   5532, 0.000110000001, 7.00000019e-05
   5533, 0.000110000001, 7.50000036e-05
   5534, 0.000110000001, 7.9999998e-05
   5535, 0.000110000001, 8.49999997e-05
   5536, 0.000110000001, 9.00000014e-05
   5537, 0.000110000001, 9.50000031e-05
   5538, 0.000110000001, 9.99999975e-05
   5539, 0.000110000001, 0.000104999999
   5540, 0.000110000001, 0.000110000001
   5541, 0.000110000001, 0.000115000003
   5542, 0.000110000001, 0.000119999997
   5543, 0.000110000001, 0.000125000006
   5544, 0.000110000001,      0.00013
   5545, 0.000110000001, 0.000134999995
   5546, 0.000110000001, 0.000140000004
   5547, 0.000110000001, 0.000144999998
   5548, 0.000110000001, 0.000150000007
   5549, 0.000110000001, 0.000155000002
   5550, 0.000110000001, 0.000159999996
   5551, 0.000110000001, 0.000165000005
   5552, 0.000110000001, 0.000169999999
   5553, 0.000110000001, 0.000174999994
   5554, 0.000110000001, 0.000180000003
   5555, 0.000110000001, 0.000184999997
   5556, 0.000110000001, 0.000190000006
   5557, 0.000110000001, 0.000195000001
   5558, 0.000104999999, 4.99999987e-06
   5559, 0.000104999999, 9.99999975e-06
   5560, 0.000104999999, 1.49999996e-05
   5561, 0.000104999999, 1.99999995e-05
   5562, 0.000104999999, 2.49999994e-05
   5563, 0.000104999999, 2.99999992e-05
   5564, 0.000104999999, 3.50000009e-05
   5565, 0.000104999999, 3.9999999e-05
   5566, 0.000104999999, 4.50000007e-05
   5567, 0.000104999999, 4.99999987e-05
   5568, 0.000104999999, 5.50000004e-05
   5569, 0.000104999999, 5.99999985e-05
   5570, 0.000104999999, 6.50000002e-05
   5571, 0.000104999999, 7.00000019e-05
   5572, 0.000104999999, 7.50000036e-05
   5573, 0.000104999999, 7.9999998e-05
   5574, 0.000104999999, 8.49999997e-05
   5575, 0.000104999999, 9.00000014e-05
   5576, 0.000104999999, 9.50000031e-05
   5577, 0.000104999999, 9.99999975e-05
   5578, 0.000104999999, 0.000104999999
   5579, 0.000104999999, 0.000110000001
   5580, 0.000104999999, 0.000115000003
   5581, 0.000104999999, 0.000119999997
   5582, 0.000104999999, 0.000125000006
   5583, 0.000104999999,      0.00013
   5584, 0.000104999999, 0.000134999995
   5585, 0.000104999999, 0.000140000004
   5586, 0.000104999999, 0.000144999998
   5587, 0.000104999999, 0.000150000007
   5588, 0.000104999999, 0.000155000002
   5589, 0.000104999999, 0.000159999996
   5590, 0.000104999999, 0.000165000005
   5591, 0.000104999999, 0.000169999999
   5592, 0.000104999999, 0.000174999994
   5593, 0.000104999999, 0.000180000003
   5594, 0.000104999999, 0.000184999997
   5595, 0.000104999999, 0.000190000006
   5596, 0.000104999999, 0.000195000001
   5597, 9.99999975e-05, 4.99999987e-06
   5598, 9.99999975e-05, 9.99999975e-06
   5599, 9.99999975e-05, 1.49999996e-05
   5600, 9.99999975e-05, 1.99999995e-05
   5601, 9.99999975e-05, 2.49999994e-05
   5602, 9.99999975e-05, 2.99999992e-05
   5603, 9.99999975e-05, 3.50000009e-05
   5604, 9.99999975e-05, 3.9999999e-05
   5605, 9.99999975e-05, 4.50000007e-05
   5606, 9.99999975e-05, 4.99999987e-05
   5607, 9.99999975e-05, 5.50000004e-05
   5608, 9.99999975e-05, 5.99999985e-05
   5609, 9.99999975e-05, 6.50000002e-05
   5610, 9.99999975e-05, 7.00000019e-05
   5611, 9.99999975e-05, 7.50000036e-05
   5612, 9.99999975e-05, 7.9999998e-05
   5613, 9.99999975e-05, 8.49999997e-05
   5614, 9.99999975e-05, 9.00000014e-05
   5615, 9.99999975e-05, 9.50000031e-05
   5616, 9.99999975e-05, 9.99999975e-05
   5617, 9.99999975e-05, 0.000104999999
   5618, 9.99999975e-05, 0.000110000001
   5619, 9.99999975e-05, 0.000115000003
   5620, 9.99999975e-05, 0.000119999997
   5621, 9.99999975e-05, 0.000125000006
   5622, 9.99999975e-05,      0.00013
   5623, 9.99999975e-05, 0.000134999995
   5624, 9.99999975e-05, 0.000140000004
   5625, 9.99999975e-05, 0.000144999998
   5626, 9.99999975e-05, 0.000150000007
   5627, 9.99999975e-05, 0.000155000002
   5628, 9.99999975e-05, 0.000159999996
   5629, 9.99999975e-05, 0.000165000005
   5630, 9.99999975e-05, 0.000169999999
   5631, 9.99999975e-05, 0.000174999994
   5632, 9.99999975e-05, 0.000180000003
   5633, 9.99999975e-05, 0.000184999997
   5634, 9.99999975e-05, 0.000190000006
   5635, 9.99999975e-05, 0.000195000001
   5636, 9.50000031e-05, 4.99999987e-06
   5637, 9.50000031e-05, 9.99999975e-06
   5638, 9.50000031e-05, 1.49999996e-05
   5639, 9.50000031e-05, 1.99999995e-05
   5640, 9.50000031e-05, 2.49999994e-05
   5641, 9.50000031e-05, 2.99999992e-05
   5642, 9.50000031e-05, 3.50000009e-05
   5643, 9.50000031e-05, 3.9999999e-05
   5644, 9.50000031e-05, 4.50000007e-05
   5645, 9.50000031e-05, 4.99999987e-05
   5646, 9.50000031e-05, 5.50000004e-05
   5647, 9.50000031e-05, 5.99999985e-05
   5648, 9.50000031e-05, 6.50000002e-05
   5649, 9.50000031e-05, 7.00000019e-05
   5650, 9.50000031e-05, 7.50000036e-05
   5651, 9.50000031e-05, 7.9999998e-05
   5652, 9.50000031e-05, 8.49999997e-05
   5653, 9.50000031e-05, 9.00000014e-05
   5654, 9.50000031e-05, 9.50000031e-05
   5655, 9.50000031e-05, 9.99999975e-05
   5656, 9.50000031e-05, 0.000104999999
   5657, 9.50000031e-05, 0.000110000001
   5658, 9.50000031e-05, 0.000115000003
   5659, 9.50000031e-05, 0.000119999997
   5660, 9.50000031e-05, 0.000125000006
   5661, 9.50000031e-05,      0.00013
   5662, 9.50000031e-05, 0.000134999995
   5663, 9.50000031e-05, 0.000140000004
   5664, 9.50000031e-05, 0.000144999998
   5665, 9.50000031e-05, 0.000150000007
   5666, 9.50000031e-05, 0.000155000002
   5667, 9.50000031e-05, 0.000159999996
   5668, 9.50000031e-05, 0.000165000005
   5669, 9.50000031e-05, 0.000169999999
   5670, 9.50000031e-05, 0.000174999994
   5671, 9.50000031e-05, 0.000180000003
   5672, 9.50000031e-05, 0.000184999997
   5673, 9.50000031e-05, 0.000190000006
   5674, 9.50000031e-05, 0.000195000001
   5675, 9.00000014e-05, 4.99999987e-06
   5676, 9.00000014e-05, 9.99999975e-06
   5677, 9.00000014e-05, 1.49999996e-05
   5678, 9.00000014e-05, 1.99999995e-05
   5679, 9.00000014e-05, 2.49999994e-05
   5680, 9.00000014e-05, 2.99999992e-05
   5681, 9.00000014e-05, 3.50000009e-05
   5682, 9.00000014e-05, 3.9999999e-05
   5683, 9.00000014e-05, 4.50000007e-05
   5684, 9.00000014e-05, 4.99999987e-05
   5685, 9.00000014e-05, 5.50000004e-05
   5686, 9.00000014e-05, 5.99999985e-05
   5687, 9.00000014e-05, 6.50000002e-05
   5688, 9.00000014e-05, 7.00000019e-05
   5689, 9.00000014e-05, 7.50000036e-05
   5690, 9.00000014e-05, 7.9999998e-05
   5691, 9.00000014e-05, 8.49999997e-05
   5692, 9.00000014e-05, 9.00000014e-05
   5693, 9.00000014e-05, 9.50000031e-05
   5694, 9.00000014e-05, 9.99999975e-05
   5695, 9.00000014e-05, 0.000104999999
   5696, 9.00000014e-05, 0.000110000001
   5697, 9.00000014e-05, 0.000115000003
   5698, 9.00000014e-05, 0.000119999997
   5699, 9.00000014e-05, 0.000125000006
   5700, 9.00000014e-05,      0.00013
   5701, 9.00000014e-05, 0.000134999995
   5702, 9.00000014e-05, 0.000140000004
   5703, 9.00000014e-05, 0.000144999998
   5704, 9.00000014e-05, 0.000150000007
   5705, 9.00000014e-05, 0.000155000002
   5706, 9.00000014e-05, 0.000159999996
   5707, 9.00000014e-05, 0.000165000005
   5708, 9.00000014e-05, 0.000169999999
   5709, 9.00000014e-05, 0.000174999994
   5710, 9.00000014e-05, 0.000180000003
   5711, 9.00000014e-05, 0.000184999997
   5712, 9.00000014e-05, 0.000190000006
   5713, 9.00000014e-05, 0.000195000001
   5714, 8.49999997e-05, 4.99999987e-06
   5715, 8.49999997e-05, 9.99999975e-06
   5716, 8.49999997e-05, 1.49999996e-05
   5717, 8.49999997e-05, 1.99999995e-05
   5718, 8.49999997e-05, 2.49999994e-05
   5719, 8.49999997e-05, 2.99999992e-05
   5720, 8.49999997e-05, 3.50000009e-05
   5721, 8.49999997e-05, 3.9999999e-05
   5722, 8.49999997e-05, 4.50000007e-05
   5723, 8.49999997e-05, 4.99999987e-05
   5724, 8.49999997e-05, 5.50000004e-05
   5725, 8.49999997e-05, 5.99999985e-05
   5726, 8.49999997e-05, 6.50000002e-05
   5727, 8.49999997e-05, 7.00000019e-05
   5728, 8.49999997e-05, 7.50000036e-05
   5729, 8.49999997e-05, 7.9999998e-05
   5730, 8.49999997e-05, 8.49999997e-05
   5731, 8.49999997e-05, 9.00000014e-05
   5732, 8.49999997e-05, 9.50000031e-05
   5733, 8.49999997e-05, 9.99999975e-05
   5734, 8.49999997e-05, 0.000104999999
   5735, 8.49999997e-05, 0.000110000001
   5736, 8.49999997e-05, 0.000115000003
   5737, 8.49999997e-05, 0.000119999997
   5738, 8.49999997e-05, 0.000125000006
   5739, 8.49999997e-05,      0.00013
   5740, 8.49999997e-05, 0.000134999995
   5741, 8.49999997e-05, 0.000140000004
   5742, 8.49999997e-05, 0.000144999998
   5743, 8.49999997e-05, 0.000150000007
   5744, 8.49999997e-05, 0.000155000002
   5745, 8.49999997e-05, 0.000159999996
   5746, 8.49999997e-05, 0.000165000005
   5747, 8.49999997e-05, 0.000169999999
   5748, 8.49999997e-05, 0.000174999994
   5749, 8.49999997e-05, 0.000180000003
   5750, 8.49999997e-05, 0.000184999997
   5751, 8.49999997e-05, 0.000190000006
   5752, 8.49999997e-05, 0.000195000001
   5753, 7.9999998e-05, 4.99999987e-06
   5754, 7.9999998e-05, 9.99999975e-06
   5755, 7.9999998e-05, 1.49999996e-05
   5756, 7.9999998e-05, 1.99999995e-05
   5757, 7.9999998e-05, 2.49999994e-05
   5758, 7.9999998e-05, 2.99999992e-05
   5759, 7.9999998e-05, 3.50000009e-05
   5760, 7.9999998e-05, 3.9999999e-05
   5761, 7.9999998e-05, 4.50000007e-05
   5762, 7.9999998e-05, 4.99999987e-05
   5763, 7.9999998e-05, 5.50000004e-05
   5764, 7.9999998e-05, 5.99999985e-05
   5765, 7.9999998e-05, 6.50000002e-05
   5766, 7.9999998e-05, 7.00000019e-05
   5767, 7.9999998e-05, 7.50000036e-05
   5768, 7.9999998e-05, 7.9999998e-05
   5769, 7.9999998e-05, 8.49999997e-05
   5770, 7.9999998e-05, 9.00000014e-05
   5771, 7.9999998e-05, 9.50000031e-05
   5772, 7.9999998e-05, 9.99999975e-05
   5773, 7.9999998e-05, 0.000104999999
   5774, 7.9999998e-05, 0.000110000001
   5775, 7.9999998e-05, 0.000115000003
   5776, 7.9999998e-05, 0.000119999997
   5777, 7.9999998e-05, 0.000125000006
   5778, 7.9999998e-05,      0.00013
   5779, 7.9999998e-05, 0.000134999995
   5780, 7.9999998e-05, 0.000140000004
   5781, 7.9999998e-05, 0.000144999998
   5782, 7.9999998e-05, 0.000150000007
   5783, 7.9999998e-05, 0.000155000002
   5784, 7.9999998e-05, 0.000159999996
   5785, 7.9999998e-05, 0.000165000005
   5786, 7.9999998e-05, 0.000169999999
   5787, 7.9999998e-05, 0.000174999994
   5788, 7.9999998e-05, 0.000180000003
   5789, 7.9999998e-05, 0.000184999997
   5790, 7.9999998e-05, 0.000190000006
   5791, 7.9999998e-05, 0.000195000001
   5792, 7.50000036e-05, 4.99999987e-06
   5793, 7.50000036e-05, 9.99999975e-06
   5794, 7.50000036e-05, 1.49999996e-05
   5795, 7.50000036e-05, 1.99999995e-05
   5796, 7.50000036e-05, 2.49999994e-05
   5797, 7.50000036e-05, 2.99999992e-05
   5798, 7.50000036e-05, 3.50000009e-05
   5799, 7.50000036e-05, 3.9999999e-05
   5800, 7.50000036e-05, 4.50000007e-05
   5801, 7.50000036e-05, 4.99999987e-05
   5802, 7.50000036e-05, 5.50000004e-05
   5803, 7.50000036e-05, 5.99999985e-05
   5804, 7.50000036e-05, 6.50000002e-05
   5805, 7.50000036e-05, 7.00000019e-05
   5806, 7.50000036e-05, 7.50000036e-05
   5807, 7.50000036e-05, 7.9999998e-05
   5808, 7.50000036e-05, 8.49999997e-05
   5809, 7.50000036e-05, 9.00000014e-05
   5810, 7.50000036e-05, 9.50000031e-05
   5811, 7.50000036e-05, 9.99999975e-05
   5812, 7.50000036e-05, 0.000104999999
   5813, 7.50000036e-05, 0.000110000001
   5814, 7.50000036e-05, 0.000115000003
   5815, 7.50000036e-05, 0.000119999997
   5816, 7.50000036e-05, 0.000125000006
   5817, 7.50000036e-05,      0.00013
   5818, 7.50000036e-05, 0.000134999995
   5819, 7.50000036e-05, 0.000140000004
   5820, 7.50000036e-05, 0.000144999998
   5821, 7.50000036e-05, 0.000150000007
   5822, 7.50000036e-05, 0.000155000002
   5823, 7.50000036e-05, 0.000159999996
   5824, 7.50000036e-05, 0.000165000005
   5825, 7.50000036e-05, 0.000169999999
   5826, 7.50000036e-05, 0.000174999994
   5827, 7.50000036e-05, 0.000180000003
   5828, 7.50000036e-05, 0.000184999997
   5829, 7.50000036e-05, 0.000190000006
   5830, 7.50000036e-05, 0.000195000001
   5831, 7.00000019e-05, 4.99999987e-06
   5832, 7.00000019e-05, 9.99999975e-06
   5833, 7.00000019e-05, 1.49999996e-05
   5834, 7.00000019e-05, 1.99999995e-05
   5835, 7.00000019e-05, 2.49999994e-05
   5836, 7.00000019e-05, 2.99999992e-05
   5837, 7.00000019e-05, 3.50000009e-05
   5838, 7.00000019e-05, 3.9999999e-05
   5839, 7.00000019e-05, 4.50000007e-05
   5840, 7.00000019e-05, 4.99999987e-05
   5841, 7.00000019e-05, 5.50000004e-05
   5842, 7.00000019e-05, 5.99999985e-05
   5843, 7.00000019e-05, 6.50000002e-05
   5844, 7.00000019e-05, 7.00000019e-05
   5845, 7.00000019e-05, 7.50000036e-05
   5846, 7.00000019e-05, 7.9999998e-05
   5847, 7.00000019e-05, 8.49999997e-05
   5848, 7.00000019e-05, 9.00000014e-05
   5849, 7.00000019e-05, 9.50000031e-05
   5850, 7.00000019e-05, 9.99999975e-05
   5851, 7.00000019e-05, 0.000104999999
   5852, 7.00000019e-05, 0.000110000001
   5853, 7.00000019e-05, 0.000115000003
   5854, 7.00000019e-05, 0.000119999997
   5855, 7.00000019e-05, 0.000125000006
   5856, 7.00000019e-05,      0.00013
   5857, 7.00000019e-05, 0.000134999995
   5858, 7.00000019e-05, 0.000140000004
   5859, 7.00000019e-05, 0.000144999998
   5860, 7.00000019e-05, 0.000150000007
   5861, 7.00000019e-05, 0.000155000002
   5862, 7.00000019e-05, 0.000159999996
   5863, 7.00000019e-05, 0.000165000005
   5864, 7.00000019e-05, 0.000169999999
   5865, 7.00000019e-05, 0.000174999994
   5866, 7.00000019e-05, 0.000180000003
   5867, 7.00000019e-05, 0.000184999997
   5868, 7.00000019e-05, 0.000190000006
   5869, 7.00000019e-05, 0.000195000001
   5870, 6.50000002e-05, 4.99999987e-06
   5871, 6.50000002e-05, 9.99999975e-06
   5872, 6.50000002e-05, 1.49999996e-05
   5873, 6.50000002e-05, 1.99999995e-05
   5874, 6.50000002e-05, 2.49999994e-05
   5875, 6.50000002e-05, 2.99999992e-05
   5876, 6.50000002e-05, 3.50000009e-05
   5877, 6.50000002e-05, 3.9999999e-05
   5878, 6.50000002e-05, 4.50000007e-05
   5879, 6.50000002e-05, 4.99999987e-05
   5880, 6.50000002e-05, 5.50000004e-05
   5881, 6.50000002e-05, 5.99999985e-05
   5882, 6.50000002e-05, 6.50000002e-05
   5883, 6.50000002e-05, 7.00000019e-05
   5884, 6.50000002e-05, 7.50000036e-05
   5885, 6.50000002e-05, 7.9999998e-05
   5886, 6.50000002e-05, 8.49999997e-05
   5887, 6.50000002e-05, 9.00000014e-05
   5888, 6.50000002e-05, 9.50000031e-05
   5889, 6.50000002e-05, 9.99999975e-05
   5890, 6.50000002e-05, 0.000104999999
   5891, 6.50000002e-05, 0.000110000001
   5892, 6.50000002e-05, 0.000115000003
   5893, 6.50000002e-05, 0.000119999997
   5894, 6.50000002e-05, 0.000125000006
   5895, 6.50000002e-05,      0.00013
   5896, 6.50000002e-05, 0.000134999995
   5897, 6.50000002e-05, 0.000140000004
   5898, 6.50000002e-05, 0.000144999998
   5899, 6.50000002e-05, 0.000150000007
   5900, 6.50000002e-05, 0.000155000002
   5901, 6.50000002e-05, 0.000159999996
   5902, 6.50000002e-05, 0.000165000005
   5903, 6.50000002e-05, 0.000169999999
   5904, 6.50000002e-05, 0.000174999994
   5905, 6.50000002e-05, 0.000180000003
   5906, 6.50000002e-05, 0.000184999997
   5907, 6.50000002e-05, 0.000190000006
   5908, 6.50000002e-05, 0.000195000001
   5909, 5.99999985e-05, 4.99999987e-06
   5910, 5.99999985e-05, 9.99999975e-06
   5911, 5.99999985e-05, 1.49999996e-05
   5912, 5.99999985e-05, 1.99999995e-05
   5913, 5.99999985e-05, 2.49999994e-05
   5914, 5.99999985e-05, 2.99999992e-05
   5915, 5.99999985e-05, 3.50000009e-05
   5916, 5.99999985e-05, 3.9999999e-05
   5917, 5.99999985e-05, 4.50000007e-05
   5918, 5.99999985e-05, 4.99999987e-05
   5919, 5.99999985e-05, 5.50000004e-05
   5920, 5.99999985e-05, 5.99999985e-05
   5921, 5.99999985e-05, 6.50000002e-05
   5922, 5.99999985e-05, 7.00000019e-05
   5923, 5.99999985e-05, 7.50000036e-05
   5924, 5.99999985e-05, 7.9999998e-05
   5925, 5.99999985e-05, 8.49999997e-05
   5926, 5.99999985e-05, 9.00000014e-05
   5927, 5.99999985e-05, 9.50000031e-05
   5928, 5.99999985e-05, 9.99999975e-05
   5929, 5.99999985e-05, 0.000104999999
   5930, 5.99999985e-05, 0.000110000001
   5931, 5.99999985e-05, 0.000115000003
   5932, 5.99999985e-05, 0.000119999997
   5933, 5.99999985e-05, 0.000125000006
   5934, 5.99999985e-05,      0.00013
   5935, 5.99999985e-05, 0.000134999995
   5936, 5.99999985e-05, 0.000140000004
   5937, 5.99999985e-05, 0.000144999998
   5938, 5.99999985e-05, 0.000150000007
   5939, 5.99999985e-05, 0.000155000002
   5940, 5.99999985e-05, 0.000159999996
   5941, 5.99999985e-05, 0.000165000005
   5942, 5.99999985e-05, 0.000169999999
   5943, 5.99999985e-05, 0.000174999994
   5944, 5.99999985e-05, 0.000180000003
   5945, 5.99999985e-05, 0.000184999997
   5946, 5.99999985e-05, 0.000190000006
   5947, 5.99999985e-05, 0.000195000001
   5948, 5.50000004e-05, 4.99999987e-06
   5949, 5.50000004e-05, 9.99999975e-06
   5950, 5.50000004e-05, 1.49999996e-05
   5951, 5.50000004e-05, 1.99999995e-05
   5952, 5.50000004e-05, 2.49999994e-05
   5953, 5.50000004e-05, 2.99999992e-05
   5954, 5.50000004e-05, 3.50000009e-05
   5955, 5.50000004e-05, 3.9999999e-05
   5956, 5.50000004e-05, 4.50000007e-05
   5957, 5.50000004e-05, 4.99999987e-05
   5958, 5.50000004e-05, 5.50000004e-05
   5959, 5.50000004e-05, 5.99999985e-05
   5960, 5.50000004e-05, 6.50000002e-05
   5961, 5.50000004e-05, 7.00000019e-05
   5962, 5.50000004e-05, 7.50000036e-05
   5963, 5.50000004e-05, 7.9999998e-05
   5964, 5.50000004e-05, 8.49999997e-05
   5965, 5.50000004e-05, 9.00000014e-05
   5966, 5.50000004e-05, 9.50000031e-05
   5967, 5.50000004e-05, 9.99999975e-05
   5968, 5.50000004e-05, 0.000104999999
   5969, 5.50000004e-05, 0.000110000001
   5970, 5.50000004e-05, 0.000115000003
   5971, 5.50000004e-05, 0.000119999997
   5972, 5.50000004e-05, 0.000125000006
   5973, 5.50000004e-05,      0.00013
   5974, 5.50000004e-05, 0.000134999995
   5975, 5.50000004e-05, 0.000140000004
   5976, 5.50000004e-05, 0.000144999998
   5977, 5.50000004e-05, 0.000150000007
   5978, 5.50000004e-05, 0.000155000002
   5979, 5.50000004e-05, 0.000159999996
   5980, 5.50000004e-05, 0.000165000005
   5981, 5.50000004e-05, 0.000169999999
   5982, 5.50000004e-05, 0.000174999994
   5983, 5.50000004e-05, 0.000180000003
   5984, 5.50000004e-05, 0.000184999997
   5985, 5.50000004e-05, 0.000190000006
   5986, 5.50000004e-05, 0.000195000001
   5987, 4.99999987e-05, 4.99999987e-06
   5988, 4.99999987e-05, 9.99999975e-06
   5989, 4.99999987e-05, 1.49999996e-05
   5990, 4.99999987e-05, 1.99999995e-05
   5991, 4.99999987e-05, 2.49999994e-05
   5992, 4.99999987e-05, 2.99999992e-05
   5993, 4.99999987e-05, 3.50000009e-05
   5994, 4.99999987e-05, 3.9999999e-05
   5995, 4.99999987e-05, 4.50000007e-05
   5996, 4.99999987e-05, 4.99999987e-05
   5997, 4.99999987e-05, 5.50000004e-05
   5998, 4.99999987e-05, 5.99999985e-05
   5999, 4.99999987e-05, 6.50000002e-05
   6000, 4.99999987e-05, 7.00000019e-05
   6001, 4.99999987e-05, 7.50000036e-05
   6002, 4.99999987e-05, 7.9999998e-05
   6003, 4.99999987e-05, 8.49999997e-05
   6004, 4.99999987e-05, 9.00000014e-05
   6005, 4.99999987e-05, 9.50000031e-05
   6006, 4.99999987e-05, 9.99999975e-05
   6007, 4.99999987e-05, 0.000104999999
   6008, 4.99999987e-05, 0.000110000001
   6009, 4.99999987e-05, 0.000115000003
   6010, 4.99999987e-05, 0.000119999997
   6011, 4.99999987e-05, 0.000125000006
   6012, 4.99999987e-05,      0.00013
   6013, 4.99999987e-05, 0.000134999995
   6014, 4.99999987e-05, 0.000140000004
   6015, 4.99999987e-05, 0.000144999998
   6016, 4.99999987e-05, 0.000150000007
   6017, 4.99999987e-05, 0.000155000002
   6018, 4.99999987e-05, 0.000159999996
   6019, 4.99999987e-05, 0.000165000005
   6020, 4.99999987e-05, 0.000169999999
   6021, 4.99999987e-05, 0.000174999994
   6022, 4.99999987e-05, 0.000180000003
   6023, 4.99999987e-05, 0.000184999997
   6024, 4.99999987e-05, 0.000190000006
   6025, 4.99999987e-05, 0.000195000001
   6026, 4.50000007e-05, 4.99999987e-06
   6027, 4.50000007e-05, 9.99999975e-06
   6028, 4.50000007e-05, 1.49999996e-05
   6029, 4.50000007e-05, 1.99999995e-05
   6030, 4.50000007e-05, 2.49999994e-05
   6031, 4.50000007e-05, 2.99999992e-05
   6032, 4.50000007e-05, 3.50000009e-05
   6033, 4.50000007e-05, 3.9999999e-05
   6034, 4.50000007e-05, 4.50000007e-05
   6035, 4.50000007e-05, 4.99999987e-05
   6036, 4.50000007e-05, 5.50000004e-05
   6037, 4.50000007e-05, 5.99999985e-05
   6038, 4.50000007e-05, 6.50000002e-05
   6039, 4.50000007e-05, 7.00000019e-05
   6040, 4.50000007e-05, 7.50000036e-05
   6041, 4.50000007e-05, 7.9999998e-05
   6042, 4.50000007e-05, 8.49999997e-05
   6043, 4.50000007e-05, 9.00000014e-05
   6044, 4.50000007e-05, 9.50000031e-05
   6045, 4.50000007e-05, 9.99999975e-05
   6046, 4.50000007e-05, 0.000104999999
   6047, 4.50000007e-05, 0.000110000001
   6048, 4.50000007e-05, 0.000115000003
   6049, 4.50000007e-05, 0.000119999997
   6050, 4.50000007e-05, 0.000125000006
   6051, 4.50000007e-05,      0.00013
   6052, 4.50000007e-05, 0.000134999995
   6053, 4.50000007e-05, 0.000140000004
   6054, 4.50000007e-05, 0.000144999998
   6055, 4.50000007e-05, 0.000150000007
   6056, 4.50000007e-05, 0.000155000002
   6057, 4.50000007e-05, 0.000159999996
   6058, 4.50000007e-05, 0.000165000005
   6059, 4.50000007e-05, 0.000169999999
   6060, 4.50000007e-05, 0.000174999994
   6061, 4.50000007e-05, 0.000180000003
   6062, 4.50000007e-05, 0.000184999997
   6063, 4.50000007e-05, 0.000190000006
   6064, 4.50000007e-05, 0.000195000001
   6065, 3.9999999e-05, 4.99999987e-06
   6066, 3.9999999e-05, 9.99999975e-06
   6067, 3.9999999e-05, 1.49999996e-05
   6068, 3.9999999e-05, 1.99999995e-05
   6069, 3.9999999e-05, 2.49999994e-05
   6070, 3.9999999e-05, 2.99999992e-05
   6071, 3.9999999e-05, 3.50000009e-05
   6072, 3.9999999e-05, 3.9999999e-05
   6073, 3.9999999e-05, 4.50000007e-05
   6074, 3.9999999e-05, 4.99999987e-05
   6075, 3.9999999e-05, 5.50000004e-05
   6076, 3.9999999e-05, 5.99999985e-05
   6077, 3.9999999e-05, 6.50000002e-05
   6078, 3.9999999e-05, 7.00000019e-05
   6079, 3.9999999e-05, 7.50000036e-05
   6080, 3.9999999e-05, 7.9999998e-05
   6081, 3.9999999e-05, 8.49999997e-05
   6082, 3.9999999e-05, 9.00000014e-05
   6083, 3.9999999e-05, 9.50000031e-05
   6084, 3.9999999e-05, 9.99999975e-05
   6085, 3.9999999e-05, 0.000104999999
   6086, 3.9999999e-05, 0.000110000001
   6087, 3.9999999e-05, 0.000115000003
   6088, 3.9999999e-05, 0.000119999997
   6089, 3.9999999e-05, 0.000125000006
   6090, 3.9999999e-05,      0.00013
   6091, 3.9999999e-05, 0.000134999995
   6092, 3.9999999e-05, 0.000140000004
   6093, 3.9999999e-05, 0.000144999998
   6094, 3.9999999e-05, 0.000150000007
   6095, 3.9999999e-05, 0.000155000002
   6096, 3.9999999e-05, 0.000159999996
   6097, 3.9999999e-05, 0.000165000005
   6098, 3.9999999e-05, 0.000169999999
   6099, 3.9999999e-05, 0.000174999994
   6100, 3.9999999e-05, 0.000180000003
   6101, 3.9999999e-05, 0.000184999997
   6102, 3.9999999e-05, 0.000190000006
   6103, 3.9999999e-05, 0.000195000001
   6104, 3.50000009e-05, 4.99999987e-06
   6105, 3.50000009e-05, 9.99999975e-06
   6106, 3.50000009e-05, 1.49999996e-05
   6107, 3.50000009e-05, 1.99999995e-05
   6108, 3.50000009e-05, 2.49999994e-05
   6109, 3.50000009e-05, 2.99999992e-05
   6110, 3.50000009e-05, 3.50000009e-05
   6111, 3.50000009e-05, 3.9999999e-05
   6112, 3.50000009e-05, 4.50000007e-05
   6113, 3.50000009e-05, 4.99999987e-05
   6114, 3.50000009e-05, 5.50000004e-05
   6115, 3.50000009e-05, 5.99999985e-05
   6116, 3.50000009e-05, 6.50000002e-05
   6117, 3.50000009e-05, 7.00000019e-05
   6118, 3.50000009e-05, 7.50000036e-05
   6119, 3.50000009e-05, 7.9999998e-05
   6120, 3.50000009e-05, 8.49999997e-05
   6121, 3.50000009e-05, 9.00000014e-05
   6122, 3.50000009e-05, 9.50000031e-05
   6123, 3.50000009e-05, 9.99999975e-05
   6124, 3.50000009e-05, 0.000104999999
   6125, 3.50000009e-05, 0.000110000001
   6126, 3.50000009e-05, 0.000115000003
   6127, 3.50000009e-05, 0.000119999997
   6128, 3.50000009e-05, 0.000125000006
   6129, 3.50000009e-05,      0.00013
   6130, 3.50000009e-05, 0.000134999995
   6131, 3.50000009e-05, 0.000140000004
   6132, 3.50000009e-05, 0.000144999998
   6133, 3.50000009e-05, 0.000150000007
   6134, 3.50000009e-05, 0.000155000002
   6135, 3.50000009e-05, 0.000159999996
   6136, 3.50000009e-05, 0.000165000005
   6137, 3.50000009e-05, 0.000169999999
   6138, 3.50000009e-05, 0.000174999994
   6139, 3.50000009e-05, 0.000180000003
   6140, 3.50000009e-05, 0.000184999997
   6141, 3.50000009e-05, 0.000190000006
   6142, 3.50000009e-05, 0.000195000001
   6143, 2.99999992e-05, 4.99999987e-06
   6144, 2.99999992e-05, 9.99999975e-06
   6145, 2.99999992e-05, 1.49999996e-05
   6146, 2.99999992e-05, 1.99999995e-05
   6147, 2.99999992e-05, 2.49999994e-05
   6148, 2.99999992e-05, 2.99999992e-05
   6149, 2.99999992e-05, 3.50000009e-05
   6150, 2.99999992e-05, 3.9999999e-05
   6151, 2.99999992e-05, 4.50000007e-05
   6152, 2.99999992e-05, 4.99999987e-05
   6153, 2.99999992e-05, 5.50000004e-05
   6154, 2.99999992e-05, 5.99999985e-05
   6155, 2.99999992e-05, 6.50000002e-05
   6156, 2.99999992e-05, 7.00000019e-05
   6157, 2.99999992e-05, 7.50000036e-05
   6158, 2.99999992e-05, 7.9999998e-05
   6159, 2.99999992e-05, 8.49999997e-05
   6160, 2.99999992e-05, 9.00000014e-05
   6161, 2.99999992e-05, 9.50000031e-05
   6162, 2.99999992e-05, 9.99999975e-05
   6163, 2.99999992e-05, 0.000104999999
   6164, 2.99999992e-05, 0.000110000001
   6165, 2.99999992e-05, 0.000115000003
   6166, 2.99999992e-05, 0.000119999997
   6167, 2.99999992e-05, 0.000125000006
   6168, 2.99999992e-05,      0.00013
   6169, 2.99999992e-05, 0.000134999995
   6170, 2.99999992e-05, 0.000140000004
   6171, 2.99999992e-05, 0.000144999998
   6172, 2.99999992e-05, 0.000150000007
   6173, 2.99999992e-05, 0.000155000002
   6174, 2.99999992e-05, 0.000159999996
   6175, 2.99999992e-05, 0.000165000005
   6176, 2.99999992e-05, 0.000169999999
   6177, 2.99999992e-05, 0.000174999994
   6178, 2.99999992e-05, 0.000180000003
   6179, 2.99999992e-05, 0.000184999997
   6180, 2.99999992e-05, 0.000190000006
   6181, 2.99999992e-05, 0.000195000001
   6182, 2.49999994e-05, 4.99999987e-06
   6183, 2.49999994e-05, 9.99999975e-06
   6184, 2.49999994e-05, 1.49999996e-05
   6185, 2.49999994e-05, 1.99999995e-05
   6186, 2.49999994e-05, 2.49999994e-05
   6187, 2.49999994e-05, 2.99999992e-05
   6188, 2.49999994e-05, 3.50000009e-05
   6189, 2.49999994e-05, 3.9999999e-05
   6190, 2.49999994e-05, 4.50000007e-05
   6191, 2.49999994e-05, 4.99999987e-05
   6192, 2.49999994e-05, 5.50000004e-05
   6193, 2.49999994e-05, 5.99999985e-05
   6194, 2.49999994e-05, 6.50000002e-05
   6195, 2.49999994e-05, 7.00000019e-05
   6196, 2.49999994e-05, 7.50000036e-05
   6197, 2.49999994e-05, 7.9999998e-05
   6198, 2.49999994e-05, 8.49999997e-05
   6199, 2.49999994e-05, 9.00000014e-05
   6200, 2.49999994e-05, 9.50000031e-05
   6201, 2.49999994e-05, 9.99999975e-05
   6202, 2.49999994e-05, 0.000104999999
   6203, 2.49999994e-05, 0.000110000001
   6204, 2.49999994e-05, 0.000115000003
   6205, 2.49999994e-05, 0.000119999997
   6206, 2.49999994e-05, 0.000125000006
   6207, 2.49999994e-05,      0.00013
   6208, 2.49999994e-05, 0.000134999995
   6209, 2.49999994e-05, 0.000140000004
   6210, 2.49999994e-05, 0.000144999998
   6211, 2.49999994e-05, 0.000150000007
   6212, 2.49999994e-05, 0.000155000002
   6213, 2.49999994e-05, 0.000159999996
   6214, 2.49999994e-05, 0.000165000005
   6215, 2.49999994e-05, 0.000169999999
   6216, 2.49999994e-05, 0.000174999994
   6217, 2.49999994e-05, 0.000180000003
   6218, 2.49999994e-05, 0.000184999997
   6219, 2.49999994e-05, 0.000190000006
   6220, 2.49999994e-05, 0.000195000001
   6221, 1.99999995e-05, 4.99999987e-06
   6222, 1.99999995e-05, 9.99999975e-06
   6223, 1.99999995e-05, 1.49999996e-05
   6224, 1.99999995e-05, 1.99999995e-05
   6225, 1.99999995e-05, 2.49999994e-05
   6226, 1.99999995e-05, 2.99999992e-05
   6227, 1.99999995e-05, 3.50000009e-05
   6228, 1.99999995e-05, 3.9999999e-05
   6229, 1.99999995e-05, 4.50000007e-05
   6230, 1.99999995e-05, 4.99999987e-05
   6231, 1.99999995e-05, 5.50000004e-05
   6232, 1.99999995e-05, 5.99999985e-05
   6233, 1.99999995e-05, 6.50000002e-05
   6234, 1.99999995e-05, 7.00000019e-05
   6235, 1.99999995e-05, 7.50000036e-05
   6236, 1.99999995e-05, 7.9999998e-05
   6237, 1.99999995e-05, 8.49999997e-05
   6238, 1.99999995e-05, 9.00000014e-05
   6239, 1.99999995e-05, 9.50000031e-05
   6240, 1.99999995e-05, 9.99999975e-05
   6241, 1.99999995e-05, 0.000104999999
   6242, 1.99999995e-05, 0.000110000001
   6243, 1.99999995e-05, 0.000115000003
   6244, 1.99999995e-05, 0.000119999997
   6245, 1.99999995e-05, 0.000125000006
   6246, 1.99999995e-05,      0.00013
   6247, 1.99999995e-05, 0.000134999995
   6248, 1.99999995e-05, 0.000140000004
   6249, 1.99999995e-05, 0.000144999998
   6250, 1.99999995e-05, 0.000150000007
   6251, 1.99999995e-05, 0.000155000002
   6252, 1.99999995e-05, 0.000159999996
   6253, 1.99999995e-05, 0.000165000005
   6254, 1.99999995e-05, 0.000169999999
   6255, 1.99999995e-05, 0.000174999994
   6256, 1.99999995e-05, 0.000180000003
   6257, 1.99999995e-05, 0.000184999997
   6258, 1.99999995e-05, 0.000190000006
   6259, 1.99999995e-05, 0.000195000001
   6260, 1.49999996e-05, 4.99999987e-06
   6261, 1.49999996e-05, 9.99999975e-06
   6262, 1.49999996e-05, 1.49999996e-05
   6263, 1.49999996e-05, 1.99999995e-05
   6264, 1.49999996e-05, 2.49999994e-05
   6265, 1.49999996e-05, 2.99999992e-05
   6266, 1.49999996e-05, 3.50000009e-05
   6267, 1.49999996e-05, 3.9999999e-05
   6268, 1.49999996e-05, 4.50000007e-05
   6269, 1.49999996e-05, 4.99999987e-05
   6270, 1.49999996e-05, 5.50000004e-05
   6271, 1.49999996e-05, 5.99999985e-05
   6272, 1.49999996e-05, 6.50000002e-05
   6273, 1.49999996e-05, 7.00000019e-05
   6274, 1.49999996e-05, 7.50000036e-05
   6275, 1.49999996e-05, 7.9999998e-05
   6276, 1.49999996e-05, 8.49999997e-05
   6277, 1.49999996e-05, 9.00000014e-05
   6278, 1.49999996e-05, 9.50000031e-05
   6279, 1.49999996e-05, 9.99999975e-05
   6280, 1.49999996e-05, 0.000104999999
   6281, 1.49999996e-05, 0.000110000001
   6282, 1.49999996e-05, 0.000115000003
   6283, 1.49999996e-05, 0.000119999997
   6284, 1.49999996e-05, 0.000125000006
   6285, 1.49999996e-05,      0.00013
   6286, 1.49999996e-05, 0.000134999995
   6287, 1.49999996e-05, 0.000140000004
   6288, 1.49999996e-05, 0.000144999998
   6289, 1.49999996e-05, 0.000150000007
   6290, 1.49999996e-05, 0.000155000002
   6291, 1.49999996e-05, 0.000159999996
   6292, 1.49999996e-05, 0.000165000005
   6293, 1.49999996e-05, 0.000169999999
   6294, 1.49999996e-05, 0.000174999994
   6295, 1.49999996e-05, 0.000180000003
   6296, 1.49999996e-05, 0.000184999997
   6297, 1.49999996e-05, 0.000190000006
   6298, 1.49999996e-05, 0.000195000001
   6299, 9.99999975e-06, 4.99999987e-06
   6300, 9.99999975e-06, 9.99999975e-06
   6301, 9.99999975e-06, 1.49999996e-05
   6302, 9.99999975e-06, 1.99999995e-05
   6303, 9.99999975e-06, 2.49999994e-05
   6304, 9.99999975e-06, 2.99999992e-05
   6305, 9.99999975e-06, 3.50000009e-05
   6306, 9.99999975e-06, 3.9999999e-05
   6307, 9.99999975e-06, 4.50000007e-05
   6308, 9.99999975e-06, 4.99999987e-05
   6309, 9.99999975e-06, 5.50000004e-05
   6310, 9.99999975e-06, 5.99999985e-05
   6311, 9.99999975e-06, 6.50000002e-05
   6312, 9.99999975e-06, 7.00000019e-05
   6313, 9.99999975e-06, 7.50000036e-05
   6314, 9.99999975e-06, 7.9999998e-05
   6315, 9.99999975e-06, 8.49999997e-05
   6316, 9.99999975e-06, 9.00000014e-05
   6317, 9.99999975e-06, 9.50000031e-05
   6318, 9.99999975e-06, 9.99999975e-05
   6319, 9.99999975e-06, 0.000104999999
   6320, 9.99999975e-06, 0.000110000001
   6321, 9.99999975e-06, 0.000115000003
   6322, 9.99999975e-06, 0.000119999997
   6323, 9.99999975e-06, 0.000125000006
   6324, 9.99999975e-06,      0.00013
   6325, 9.99999975e-06, 0.000134999995
   6326, 9.99999975e-06, 0.000140000004
   6327, 9.99999975e-06, 0.000144999998
   6328, 9.99999975e-06, 0.000150000007
   6329, 9.99999975e-06, 0.000155000002
   6330, 9.99999975e-06, 0.000159999996
   6331, 9.99999975e-06, 0.000165000005
   6332, 9.99999975e-06, 0.000169999999
   6333, 9.99999975e-06, 0.000174999994
   6334, 9.99999975e-06, 0.000180000003
   6335, 9.99999975e-06, 0.000184999997
   6336, 9.99999975e-06, 0.000190000006
   6337, 9.99999975e-06, 0.000195000001
   6338, 4.99999987e-06, 4.99999987e-06
   6339, 4.99999987e-06, 9.99999975e-06
   6340, 4.99999987e-06, 1.49999996e-05
   6341, 4.99999987e-06, 1.99999995e-05
   6342, 4.99999987e-06, 2.49999994e-05
   6343, 4.99999987e-06, 2.99999992e-05
   6344, 4.99999987e-06, 3.50000009e-05
   6345, 4.99999987e-06, 3.9999999e-05
   6346, 4.99999987e-06, 4.50000007e-05
   6347, 4.99999987e-06, 4.99999987e-05
   6348, 4.99999987e-06, 5.50000004e-05
   6349, 4.99999987e-06, 5.99999985e-05
   6350, 4.99999987e-06, 6.50000002e-05
   6351, 4.99999987e-06, 7.00000019e-05
   6352, 4.99999987e-06, 7.50000036e-05
   6353, 4.99999987e-06, 7.9999998e-05
   6354, 4.99999987e-06, 8.49999997e-05
   6355, 4.99999987e-06, 9.00000014e-05
   6356, 4.99999987e-06, 9.50000031e-05
   6357, 4.99999987e-06, 9.99999975e-05
   6358, 4.99999987e-06, 0.000104999999
   6359, 4.99999987e-06, 0.000110000001
   6360, 4.99999987e-06, 0.000115000003
   6361, 4.99999987e-06, 0.000119999997
   6362, 4.99999987e-06, 0.000125000006
   6363, 4.99999987e-06,      0.00013
   6364, 4.99999987e-06, 0.000134999995
   6365, 4.99999987e-06, 0.000140000004
   6366, 4.99999987e-06, 0.000144999998
   6367, 4.99999987e-06, 0.000150000007
   6368, 4.99999987e-06, 0.000155000002
   6369, 4.99999987e-06, 0.000159999996
   6370, 4.99999987e-06, 0.000165000005
   6371, 4.99999987e-06, 0.000169999999
   6372, 4.99999987e-06, 0.000174999994
   6373, 4.99999987e-06, 0.000180000003
   6374, 4.99999987e-06, 0.000184999997
   6375, 4.99999987e-06, 0.000190000006
   6376, 4.99999987e-06, 0.000195000001
   6377, 0.000345000008, 0.000195000001
   6378, 0.000345000008, 0.000190000006
   6379, 0.000345000008, 0.000184999997
   6380, 0.000345000008, 0.000180000003
   6381, 0.000345000008, 0.000174999994
   6382, 0.000345000008, 0.000169999999
   6383, 0.000345000008, 0.000165000005
   6384, 0.000345000008, 0.000159999996
   6385, 0.000345000008, 0.000155000002
   6386, 0.000345000008, 0.000150000007
   6387, 0.000345000008, 0.000144999998
   6388, 0.000345000008, 0.000140000004
   6389, 0.000345000008, 0.000134999995
   6390, 0.000345000008,      0.00013
   6391, 0.000345000008, 0.000125000006
   6392, 0.000345000008, 0.000119999997
   6393, 0.000345000008, 0.000115000003
   6394, 0.000345000008, 0.000110000001
   6395, 0.000345000008, 0.000104999999
   6396, 0.000345000008, 9.99999975e-05
   6397, 0.000345000008, 9.50000031e-05
   6398, 0.000345000008, 9.00000014e-05
   6399, 0.000345000008, 8.49999997e-05
   6400, 0.000345000008, 7.9999998e-05
   6401, 0.000345000008, 7.50000036e-05
   6402, 0.000345000008, 7.00000019e-05
   6403, 0.000345000008, 6.50000002e-05
   6404, 0.000345000008, 5.99999985e-05
   6405, 0.000345000008, 5.50000004e-05
   6406, 0.000345000008, 4.99999987e-05
   6407, 0.000345000008, 4.50000007e-05
   6408, 0.000345000008, 3.9999999e-05
   6409, 0.000345000008, 3.50000009e-05
   6410, 0.000345000008, 2.99999992e-05
   6411, 0.000345000008, 2.49999994e-05
   6412, 0.000345000008, 1.99999995e-05
   6413, 0.000345000008, 1.49999996e-05
   6414, 0.000345000008, 9.99999975e-06
   6415, 0.000345000008, 4.99999987e-06
   6416, 0.000349999988, 0.000195000001
   6417, 0.000349999988, 0.000190000006
   6418, 0.000349999988, 0.000184999997
   6419, 0.000349999988, 0.000180000003
   6420, 0.000349999988, 0.000174999994
   6421, 0.000349999988, 0.000169999999
   6422, 0.000349999988, 0.000165000005
   6423, 0.000349999988, 0.000159999996
   6424, 0.000349999988, 0.000155000002
   6425, 0.000349999988, 0.000150000007
   6426, 0.000349999988, 0.000144999998
   6427, 0.000349999988, 0.000140000004
   6428, 0.000349999988, 0.000134999995
   6429, 0.000349999988,      0.00013
   6430, 0.000349999988, 0.000125000006
   6431, 0.000349999988, 0.000119999997
   6432, 0.000349999988, 0.000115000003
   6433, 0.000349999988, 0.000110000001
   6434, 0.000349999988, 0.000104999999
   6435, 0.000349999988, 9.99999975e-05
   6436, 0.000349999988, 9.50000031e-05
   6437, 0.000349999988, 9.00000014e-05
   6438, 0.000349999988, 8.49999997e-05
   6439, 0.000349999988, 7.9999998e-05
   6440, 0.000349999988, 7.50000036e-05
   6441, 0.000349999988, 7.00000019e-05
   6442, 0.000349999988, 6.50000002e-05
   6443, 0.000349999988, 5.99999985e-05
   6444, 0.000349999988, 5.50000004e-05
   6445, 0.000349999988, 4.99999987e-05
   6446, 0.000349999988, 4.50000007e-05
   6447, 0.000349999988, 3.9999999e-05
   6448, 0.000349999988, 3.50000009e-05
   6449, 0.000349999988, 2.99999992e-05
   6450, 0.000349999988, 2.49999994e-05
   6451, 0.000349999988, 1.99999995e-05
   6452, 0.000349999988, 1.49999996e-05
   6453, 0.000349999988, 9.99999975e-06
   6454, 0.000349999988, 4.99999987e-06
   6455, 0.000354999996, 0.000195000001
   6456, 0.000354999996, 0.000190000006
   6457, 0.000354999996, 0.000184999997
   6458, 0.000354999996, 0.000180000003
   6459, 0.000354999996, 0.000174999994
   6460, 0.000354999996, 0.000169999999
   6461, 0.000354999996, 0.000165000005
   6462, 0.000354999996, 0.000159999996
   6463, 0.000354999996, 0.000155000002
   6464, 0.000354999996, 0.000150000007
   6465, 0.000354999996, 0.000144999998
   6466, 0.000354999996, 0.000140000004
   6467, 0.000354999996, 0.000134999995
   6468, 0.000354999996,      0.00013
   6469, 0.000354999996, 0.000125000006
   6470, 0.000354999996, 0.000119999997
   6471, 0.000354999996, 0.000115000003
   6472, 0.000354999996, 0.000110000001
   6473, 0.000354999996, 0.000104999999
   6474, 0.000354999996, 9.99999975e-05
   6475, 0.000354999996, 9.50000031e-05
   6476, 0.000354999996, 9.00000014e-05
   6477, 0.000354999996, 8.49999997e-05
   6478, 0.000354999996, 7.9999998e-05
   6479, 0.000354999996, 7.50000036e-05
   6480, 0.000354999996, 7.00000019e-05
   6481, 0.000354999996, 6.50000002e-05
   6482, 0.000354999996, 5.99999985e-05
   6483, 0.000354999996, 5.50000004e-05
   6484, 0.000354999996, 4.99999987e-05
   6485, 0.000354999996, 4.50000007e-05
   6486, 0.000354999996, 3.9999999e-05
   6487, 0.000354999996, 3.50000009e-05
   6488, 0.000354999996, 2.99999992e-05
   6489, 0.000354999996, 2.49999994e-05
   6490, 0.000354999996, 1.99999995e-05
   6491, 0.000354999996, 1.49999996e-05
   6492, 0.000354999996, 9.99999975e-06
   6493, 0.000354999996, 4.99999987e-06
   6494, 0.000360000005, 0.000195000001
   6495, 0.000360000005, 0.000190000006
   6496, 0.000360000005, 0.000184999997
   6497, 0.000360000005, 0.000180000003
   6498, 0.000360000005, 0.000174999994
   6499, 0.000360000005, 0.000169999999
   6500, 0.000360000005, 0.000165000005
   6501, 0.000360000005, 0.000159999996
   6502, 0.000360000005, 0.000155000002
   6503, 0.000360000005, 0.000150000007
   6504, 0.000360000005, 0.000144999998
   6505, 0.000360000005, 0.000140000004
   6506, 0.000360000005, 0.000134999995
   6507, 0.000360000005,      0.00013
   6508, 0.000360000005, 0.000125000006
   6509, 0.000360000005, 0.000119999997
   6510, 0.000360000005, 0.000115000003
   6511, 0.000360000005, 0.000110000001
   6512, 0.000360000005, 0.000104999999
   6513, 0.000360000005, 9.99999975e-05
   6514, 0.000360000005, 9.50000031e-05
   6515, 0.000360000005, 9.00000014e-05
   6516, 0.000360000005, 8.49999997e-05
   6517, 0.000360000005, 7.9999998e-05
   6518, 0.000360000005, 7.50000036e-05
   6519, 0.000360000005, 7.00000019e-05
   6520, 0.000360000005, 6.50000002e-05
   6521, 0.000360000005, 5.99999985e-05
   6522, 0.000360000005, 5.50000004e-05
   6523, 0.000360000005, 4.99999987e-05
   6524, 0.000360000005, 4.50000007e-05
   6525, 0.000360000005, 3.9999999e-05
   6526, 0.000360000005, 3.50000009e-05
   6527, 0.000360000005, 2.99999992e-05
   6528, 0.000360000005, 2.49999994e-05
   6529, 0.000360000005, 1.99999995e-05
   6530, 0.000360000005, 1.49999996e-05
   6531, 0.000360000005, 9.99999975e-06
   6532, 0.000360000005, 4.99999987e-06
   6533, 0.000365000014, 0.000195000001
   6534, 0.000365000014, 0.000190000006
   6535, 0.000365000014, 0.000184999997
   6536, 0.000365000014, 0.000180000003
   6537, 0.000365000014, 0.000174999994
   6538, 0.000365000014, 0.000169999999
   6539, 0.000365000014, 0.000165000005
   6540, 0.000365000014, 0.000159999996
   6541, 0.000365000014, 0.000155000002
   6542, 0.000365000014, 0.000150000007
   6543, 0.000365000014, 0.000144999998
   6544, 0.000365000014, 0.000140000004
   6545, 0.000365000014, 0.000134999995
   6546, 0.000365000014,      0.00013
   6547, 0.000365000014, 0.000125000006
   6548, 0.000365000014, 0.000119999997
   6549, 0.000365000014, 0.000115000003
   6550, 0.000365000014, 0.000110000001
   6551, 0.000365000014, 0.000104999999
   6552, 0.000365000014, 9.99999975e-05
   6553, 0.000365000014, 9.50000031e-05
   6554, 0.000365000014, 9.00000014e-05
   6555, 0.000365000014, 8.49999997e-05
   6556, 0.000365000014, 7.9999998e-05
   6557, 0.000365000014, 7.50000036e-05
   6558, 0.000365000014, 7.00000019e-05
   6559, 0.000365000014, 6.50000002e-05
   6560, 0.000365000014, 5.99999985e-05
   6561, 0.000365000014, 5.50000004e-05
   6562, 0.000365000014, 4.99999987e-05
   6563, 0.000365000014, 4.50000007e-05
   6564, 0.000365000014, 3.9999999e-05
   6565, 0.000365000014, 3.50000009e-05
   6566, 0.000365000014, 2.99999992e-05
   6567, 0.000365000014, 2.49999994e-05
   6568, 0.000365000014, 1.99999995e-05
   6569, 0.000365000014, 1.49999996e-05
   6570, 0.000365000014, 9.99999975e-06
   6571, 0.000365000014, 4.99999987e-06
   6572, 0.000369999994, 0.000195000001
   6573, 0.000369999994, 0.000190000006
   6574, 0.000369999994, 0.000184999997
   6575, 0.000369999994, 0.000180000003
   6576, 0.000369999994, 0.000174999994
   6577, 0.000369999994, 0.000169999999
   6578, 0.000369999994, 0.000165000005
   6579, 0.000369999994, 0.000159999996
   6580, 0.000369999994, 0.000155000002
   6581, 0.000369999994, 0.000150000007
   6582, 0.000369999994, 0.000144999998
   6583, 0.000369999994, 0.000140000004
   6584, 0.000369999994, 0.000134999995
   6585, 0.000369999994,      0.00013
   6586, 0.000369999994, 0.000125000006
   6587, 0.000369999994, 0.000119999997
   6588, 0.000369999994, 0.000115000003
   6589, 0.000369999994, 0.000110000001
   6590, 0.000369999994, 0.000104999999
   6591, 0.000369999994, 9.99999975e-05
   6592, 0.000369999994, 9.50000031e-05
   6593, 0.000369999994, 9.00000014e-05
   6594, 0.000369999994, 8.49999997e-05
   6595, 0.000369999994, 7.9999998e-05
   6596, 0.000369999994, 7.50000036e-05
   6597, 0.000369999994, 7.00000019e-05
   6598, 0.000369999994, 6.50000002e-05
   6599, 0.000369999994, 5.99999985e-05
   6600, 0.000369999994, 5.50000004e-05
   6601, 0.000369999994, 4.99999987e-05
   6602, 0.000369999994, 4.50000007e-05
   6603, 0.000369999994, 3.9999999e-05
   6604, 0.000369999994, 3.50000009e-05
   6605, 0.000369999994, 2.99999992e-05
   6606, 0.000369999994, 2.49999994e-05
   6607, 0.000369999994, 1.99999995e-05
   6608, 0.000369999994, 1.49999996e-05
   6609, 0.000369999994, 9.99999975e-06
   6610, 0.000369999994, 4.99999987e-06
   6611, 0.000375000003, 0.000195000001
   6612, 0.000375000003, 0.000190000006
   6613, 0.000375000003, 0.000184999997
   6614, 0.000375000003, 0.000180000003
   6615, 0.000375000003, 0.000174999994
   6616, 0.000375000003, 0.000169999999
   6617, 0.000375000003, 0.000165000005
   6618, 0.000375000003, 0.000159999996
   6619, 0.000375000003, 0.000155000002
   6620, 0.000375000003, 0.000150000007
   6621, 0.000375000003, 0.000144999998
   6622, 0.000375000003, 0.000140000004
   6623, 0.000375000003, 0.000134999995
   6624, 0.000375000003,      0.00013
   6625, 0.000375000003, 0.000125000006
   6626, 0.000375000003, 0.000119999997
   6627, 0.000375000003, 0.000115000003
   6628, 0.000375000003, 0.000110000001
   6629, 0.000375000003, 0.000104999999
   6630, 0.000375000003, 9.99999975e-05
   6631, 0.000375000003, 9.50000031e-05
   6632, 0.000375000003, 9.00000014e-05
   6633, 0.000375000003, 8.49999997e-05
   6634, 0.000375000003, 7.9999998e-05
   6635, 0.000375000003, 7.50000036e-05
   6636, 0.000375000003, 7.00000019e-05
   6637, 0.000375000003, 6.50000002e-05
   6638, 0.000375000003, 5.99999985e-05
   6639, 0.000375000003, 5.50000004e-05
   6640, 0.000375000003, 4.99999987e-05
   6641, 0.000375000003, 4.50000007e-05
   6642, 0.000375000003, 3.9999999e-05
   6643, 0.000375000003, 3.50000009e-05
   6644, 0.000375000003, 2.99999992e-05
   6645, 0.000375000003, 2.49999994e-05
   6646, 0.000375000003, 1.99999995e-05
   6647, 0.000375000003, 1.49999996e-05
   6648, 0.000375000003, 9.99999975e-06
   6649, 0.000375000003, 4.99999987e-06
   6650, 0.000380000012, 0.000195000001
   6651, 0.000380000012, 0.000190000006
   6652, 0.000380000012, 0.000184999997
   6653, 0.000380000012, 0.000180000003
   6654, 0.000380000012, 0.000174999994
   6655, 0.000380000012, 0.000169999999
   6656, 0.000380000012, 0.000165000005
   6657, 0.000380000012, 0.000159999996
   6658, 0.000380000012, 0.000155000002
   6659, 0.000380000012, 0.000150000007
   6660, 0.000380000012, 0.000144999998
   6661, 0.000380000012, 0.000140000004
   6662, 0.000380000012, 0.000134999995
   6663, 0.000380000012,      0.00013
   6664, 0.000380000012, 0.000125000006
   6665, 0.000380000012, 0.000119999997
   6666, 0.000380000012, 0.000115000003
   6667, 0.000380000012, 0.000110000001
   6668, 0.000380000012, 0.000104999999
   6669, 0.000380000012, 9.99999975e-05
   6670, 0.000380000012, 9.50000031e-05
   6671, 0.000380000012, 9.00000014e-05
   6672, 0.000380000012, 8.49999997e-05
   6673, 0.000380000012, 7.9999998e-05
   6674, 0.000380000012, 7.50000036e-05
   6675, 0.000380000012, 7.00000019e-05
   6676, 0.000380000012, 6.50000002e-05
   6677, 0.000380000012, 5.99999985e-05
   6678, 0.000380000012, 5.50000004e-05
   6679, 0.000380000012, 4.99999987e-05
   6680, 0.000380000012, 4.50000007e-05
   6681, 0.000380000012, 3.9999999e-05
   6682, 0.000380000012, 3.50000009e-05
   6683, 0.000380000012, 2.99999992e-05
   6684, 0.000380000012, 2.49999994e-05
   6685, 0.000380000012, 1.99999995e-05
   6686, 0.000380000012, 1.49999996e-05
   6687, 0.000380000012, 9.99999975e-06
   6688, 0.000380000012, 4.99999987e-06
   6689, 0.000384999992, 0.000195000001
   6690, 0.000384999992, 0.000190000006
   6691, 0.000384999992, 0.000184999997
   6692, 0.000384999992, 0.000180000003
   6693, 0.000384999992, 0.000174999994
   6694, 0.000384999992, 0.000169999999
   6695, 0.000384999992, 0.000165000005
   6696, 0.000384999992, 0.000159999996
   6697, 0.000384999992, 0.000155000002
   6698, 0.000384999992, 0.000150000007
   6699, 0.000384999992, 0.000144999998
   6700, 0.000384999992, 0.000140000004
   6701, 0.000384999992, 0.000134999995
   6702, 0.000384999992,      0.00013
   6703, 0.000384999992, 0.000125000006
   6704, 0.000384999992, 0.000119999997
   6705, 0.000384999992, 0.000115000003
   6706, 0.000384999992, 0.000110000001
   6707, 0.000384999992, 0.000104999999
   6708, 0.000384999992, 9.99999975e-05
   6709, 0.000384999992, 9.50000031e-05
   6710, 0.000384999992, 9.00000014e-05
   6711, 0.000384999992, 8.49999997e-05
   6712, 0.000384999992, 7.9999998e-05
   6713, 0.000384999992, 7.50000036e-05
   6714, 0.000384999992, 7.00000019e-05
   6715, 0.000384999992, 6.50000002e-05
   6716, 0.000384999992, 5.99999985e-05
   6717, 0.000384999992, 5.50000004e-05
   6718, 0.000384999992, 4.99999987e-05
   6719, 0.000384999992, 4.50000007e-05
   6720, 0.000384999992, 3.9999999e-05
   6721, 0.000384999992, 3.50000009e-05
   6722, 0.000384999992, 2.99999992e-05
   6723, 0.000384999992, 2.49999994e-05
   6724, 0.000384999992, 1.99999995e-05
   6725, 0.000384999992, 1.49999996e-05
   6726, 0.000384999992, 9.99999975e-06
   6727, 0.000384999992, 4.99999987e-06
   6728, 0.000390000001, 0.000195000001
   6729, 0.000390000001, 0.000190000006
   6730, 0.000390000001, 0.000184999997
   6731, 0.000390000001, 0.000180000003
   6732, 0.000390000001, 0.000174999994
   6733, 0.000390000001, 0.000169999999
   6734, 0.000390000001, 0.000165000005
   6735, 0.000390000001, 0.000159999996
   6736, 0.000390000001, 0.000155000002
   6737, 0.000390000001, 0.000150000007
   6738, 0.000390000001, 0.000144999998
   6739, 0.000390000001, 0.000140000004
   6740, 0.000390000001, 0.000134999995
   6741, 0.000390000001,      0.00013
   6742, 0.000390000001, 0.000125000006
   6743, 0.000390000001, 0.000119999997
   6744, 0.000390000001, 0.000115000003
   6745, 0.000390000001, 0.000110000001
   6746, 0.000390000001, 0.000104999999
   6747, 0.000390000001, 9.99999975e-05
   6748, 0.000390000001, 9.50000031e-05
   6749, 0.000390000001, 9.00000014e-05
   6750, 0.000390000001, 8.49999997e-05
   6751, 0.000390000001, 7.9999998e-05
   6752, 0.000390000001, 7.50000036e-05
   6753, 0.000390000001, 7.00000019e-05
   6754, 0.000390000001, 6.50000002e-05
   6755, 0.000390000001, 5.99999985e-05
   6756, 0.000390000001, 5.50000004e-05
   6757, 0.000390000001, 4.99999987e-05
   6758, 0.000390000001, 4.50000007e-05
   6759, 0.000390000001, 3.9999999e-05
   6760, 0.000390000001, 3.50000009e-05
   6761, 0.000390000001, 2.99999992e-05
   6762, 0.000390000001, 2.49999994e-05
   6763, 0.000390000001, 1.99999995e-05
   6764, 0.000390000001, 1.49999996e-05
   6765, 0.000390000001, 9.99999975e-06
   6766, 0.000390000001, 4.99999987e-06
   6767, 0.00039500001, 0.000195000001
   6768, 0.00039500001, 0.000190000006
   6769, 0.00039500001, 0.000184999997
   6770, 0.00039500001, 0.000180000003
   6771, 0.00039500001, 0.000174999994
   6772, 0.00039500001, 0.000169999999
   6773, 0.00039500001, 0.000165000005
   6774, 0.00039500001, 0.000159999996
   6775, 0.00039500001, 0.000155000002
   6776, 0.00039500001, 0.000150000007
   6777, 0.00039500001, 0.000144999998
   6778, 0.00039500001, 0.000140000004
   6779, 0.00039500001, 0.000134999995
   6780, 0.00039500001,      0.00013
   6781, 0.00039500001, 0.000125000006
   6782, 0.00039500001, 0.000119999997
   6783, 0.00039500001, 0.000115000003
   6784, 0.00039500001, 0.000110000001
   6785, 0.00039500001, 0.000104999999
   6786, 0.00039500001, 9.99999975e-05
   6787, 0.00039500001, 9.50000031e-05
   6788, 0.00039500001, 9.00000014e-05
   6789, 0.00039500001, 8.49999997e-05
   6790, 0.00039500001, 7.9999998e-05
   6791, 0.00039500001, 7.50000036e-05
   6792, 0.00039500001, 7.00000019e-05
   6793, 0.00039500001, 6.50000002e-05
   6794, 0.00039500001, 5.99999985e-05
   6795, 0.00039500001, 5.50000004e-05
   6796, 0.00039500001, 4.99999987e-05
   6797, 0.00039500001, 4.50000007e-05
   6798, 0.00039500001, 3.9999999e-05
   6799, 0.00039500001, 3.50000009e-05
   6800, 0.00039500001, 2.99999992e-05
   6801, 0.00039500001, 2.49999994e-05
   6802, 0.00039500001, 1.99999995e-05
   6803, 0.00039500001, 1.49999996e-05
   6804, 0.00039500001, 9.99999975e-06
   6805, 0.00039500001, 4.99999987e-06
   6806, 0.00039999999, 0.000195000001
   6807, 0.00039999999, 0.000190000006
   6808, 0.00039999999, 0.000184999997
   6809, 0.00039999999, 0.000180000003
   6810, 0.00039999999, 0.000174999994
   6811, 0.00039999999, 0.000169999999
   6812, 0.00039999999, 0.000165000005
   6813, 0.00039999999, 0.000159999996
   6814, 0.00039999999, 0.000155000002
   6815, 0.00039999999, 0.000150000007
   6816, 0.00039999999, 0.000144999998
   6817, 0.00039999999, 0.000140000004
   6818, 0.00039999999, 0.000134999995
   6819, 0.00039999999,      0.00013
   6820, 0.00039999999, 0.000125000006
   6821, 0.00039999999, 0.000119999997
   6822, 0.00039999999, 0.000115000003
   6823, 0.00039999999, 0.000110000001
   6824, 0.00039999999, 0.000104999999
   6825, 0.00039999999, 9.99999975e-05
   6826, 0.00039999999, 9.50000031e-05
   6827, 0.00039999999, 9.00000014e-05
   6828, 0.00039999999, 8.49999997e-05
   6829, 0.00039999999, 7.9999998e-05
   6830, 0.00039999999, 7.50000036e-05
   6831, 0.00039999999, 7.00000019e-05
   6832, 0.00039999999, 6.50000002e-05
   6833, 0.00039999999, 5.99999985e-05
   6834, 0.00039999999, 5.50000004e-05
   6835, 0.00039999999, 4.99999987e-05
   6836, 0.00039999999, 4.50000007e-05
   6837, 0.00039999999, 3.9999999e-05
   6838, 0.00039999999, 3.50000009e-05
   6839, 0.00039999999, 2.99999992e-05
   6840, 0.00039999999, 2.49999994e-05
   6841, 0.00039999999, 1.99999995e-05
   6842, 0.00039999999, 1.49999996e-05
   6843, 0.00039999999, 9.99999975e-06
   6844, 0.00039999999, 4.99999987e-06
   6845, 0.000404999999, 0.000195000001
   6846, 0.000404999999, 0.000190000006
   6847, 0.000404999999, 0.000184999997
   6848, 0.000404999999, 0.000180000003
   6849, 0.000404999999, 0.000174999994
   6850, 0.000404999999, 0.000169999999
   6851, 0.000404999999, 0.000165000005
   6852, 0.000404999999, 0.000159999996
   6853, 0.000404999999, 0.000155000002
   6854, 0.000404999999, 0.000150000007
   6855, 0.000404999999, 0.000144999998
   6856, 0.000404999999, 0.000140000004
   6857, 0.000404999999, 0.000134999995
   6858, 0.000404999999,      0.00013
   6859, 0.000404999999, 0.000125000006
   6860, 0.000404999999, 0.000119999997
   6861, 0.000404999999, 0.000115000003
   6862, 0.000404999999, 0.000110000001
   6863, 0.000404999999, 0.000104999999
   6864, 0.000404999999, 9.99999975e-05
   6865, 0.000404999999, 9.50000031e-05
   6866, 0.000404999999, 9.00000014e-05
   6867, 0.000404999999, 8.49999997e-05
   6868, 0.000404999999, 7.9999998e-05
   6869, 0.000404999999, 7.50000036e-05
   6870, 0.000404999999, 7.00000019e-05
   6871, 0.000404999999, 6.50000002e-05
   6872, 0.000404999999, 5.99999985e-05
   6873, 0.000404999999, 5.50000004e-05
   6874, 0.000404999999, 4.99999987e-05
   6875, 0.000404999999, 4.50000007e-05
   6876, 0.000404999999, 3.9999999e-05
   6877, 0.000404999999, 3.50000009e-05
   6878, 0.000404999999, 2.99999992e-05
   6879, 0.000404999999, 2.49999994e-05
   6880, 0.000404999999, 1.99999995e-05
   6881, 0.000404999999, 1.49999996e-05
   6882, 0.000404999999, 9.99999975e-06
   6883, 0.000404999999, 4.99999987e-06
   6884, 0.000410000008, 0.000195000001
   6885, 0.000410000008, 0.000190000006
   6886, 0.000410000008, 0.000184999997
   6887, 0.000410000008, 0.000180000003
   6888, 0.000410000008, 0.000174999994
   6889, 0.000410000008, 0.000169999999
   6890, 0.000410000008, 0.000165000005
   6891, 0.000410000008, 0.000159999996
   6892, 0.000410000008, 0.000155000002
   6893, 0.000410000008, 0.000150000007
   6894, 0.000410000008, 0.000144999998
   6895, 0.000410000008, 0.000140000004
   6896, 0.000410000008, 0.000134999995
   6897, 0.000410000008,      0.00013
   6898, 0.000410000008, 0.000125000006
   6899, 0.000410000008, 0.000119999997
   6900, 0.000410000008, 0.000115000003
   6901, 0.000410000008, 0.000110000001
   6902, 0.000410000008, 0.000104999999
   6903, 0.000410000008, 9.99999975e-05
   6904, 0.000410000008, 9.50000031e-05
   6905, 0.000410000008, 9.00000014e-05
   6906, 0.000410000008, 8.49999997e-05
   6907, 0.000410000008, 7.9999998e-05
   6908, 0.000410000008, 7.50000036e-05
   6909, 0.000410000008, 7.00000019e-05
   6910, 0.000410000008, 6.50000002e-05
   6911, 0.000410000008, 5.99999985e-05
   6912, 0.000410000008, 5.50000004e-05
   6913, 0.000410000008, 4.99999987e-05
   6914, 0.000410000008, 4.50000007e-05
   6915, 0.000410000008, 3.9999999e-05
   6916, 0.000410000008, 3.50000009e-05
   6917, 0.000410000008, 2.99999992e-05
   6918, 0.000410000008, 2.49999994e-05
   6919, 0.000410000008, 1.99999995e-05
   6920, 0.000410000008, 1.49999996e-05
   6921, 0.000410000008, 9.99999975e-06
   6922, 0.000410000008, 4.99999987e-06
   6923, 0.000414999988, 0.000195000001
   6924, 0.000414999988, 0.000190000006
   6925, 0.000414999988, 0.000184999997
   6926, 0.000414999988, 0.000180000003
   6927, 0.000414999988, 0.000174999994
   6928, 0.000414999988, 0.000169999999
   6929, 0.000414999988, 0.000165000005
   6930, 0.000414999988, 0.000159999996
   6931, 0.000414999988, 0.000155000002
   6932, 0.000414999988, 0.000150000007
   6933, 0.000414999988, 0.000144999998
   6934, 0.000414999988, 0.000140000004
   6935, 0.000414999988, 0.000134999995
   6936, 0.000414999988,      0.00013
   6937, 0.000414999988, 0.000125000006
   6938, 0.000414999988, 0.000119999997
   6939, 0.000414999988, 0.000115000003
   6940, 0.000414999988, 0.000110000001
   6941, 0.000414999988, 0.000104999999
   6942, 0.000414999988, 9.99999975e-05
   6943, 0.000414999988, 9.50000031e-05
   6944, 0.000414999988, 9.00000014e-05
   6945, 0.000414999988, 8.49999997e-05
   6946, 0.000414999988, 7.9999998e-05
   6947, 0.000414999988, 7.50000036e-05
   6948, 0.000414999988, 7.00000019e-05
   6949, 0.000414999988, 6.50000002e-05
   6950, 0.000414999988, 5.99999985e-05
   6951, 0.000414999988, 5.50000004e-05
   6952, 0.000414999988, 4.99999987e-05
   6953, 0.000414999988, 4.50000007e-05
   6954, 0.000414999988, 3.9999999e-05
   6955, 0.000414999988, 3.50000009e-05
   6956, 0.000414999988, 2.99999992e-05
   6957, 0.000414999988, 2.49999994e-05
   6958, 0.000414999988, 1.99999995e-05
   6959, 0.000414999988, 1.49999996e-05
   6960, 0.000414999988, 9.99999975e-06
   6961, 0.000414999988, 4.99999987e-06
   6962, 0.000419999997, 0.000195000001
   6963, 0.000419999997, 0.000190000006
   6964, 0.000419999997, 0.000184999997
   6965, 0.000419999997, 0.000180000003
   6966, 0.000419999997, 0.000174999994
   6967, 0.000419999997, 0.000169999999
   6968, 0.000419999997, 0.000165000005
   6969, 0.000419999997, 0.000159999996
   6970, 0.000419999997, 0.000155000002
   6971, 0.000419999997, 0.000150000007
   6972, 0.000419999997, 0.000144999998
   6973, 0.000419999997, 0.000140000004
   6974, 0.000419999997, 0.000134999995
   6975, 0.000419999997,      0.00013
   6976, 0.000419999997, 0.000125000006
   6977, 0.000419999997, 0.000119999997
   6978, 0.000419999997, 0.000115000003
   6979, 0.000419999997, 0.000110000001
   6980, 0.000419999997, 0.000104999999
   6981, 0.000419999997, 9.99999975e-05
   6982, 0.000419999997, 9.50000031e-05
   6983, 0.000419999997, 9.00000014e-05
   6984, 0.000419999997, 8.49999997e-05
   6985, 0.000419999997, 7.9999998e-05
   6986, 0.000419999997, 7.50000036e-05
   6987, 0.000419999997, 7.00000019e-05
   6988, 0.000419999997, 6.50000002e-05
   6989, 0.000419999997, 5.99999985e-05
   6990, 0.000419999997, 5.50000004e-05
   6991, 0.000419999997, 4.99999987e-05
   6992, 0.000419999997, 4.50000007e-05
   6993, 0.000419999997, 3.9999999e-05
   6994, 0.000419999997, 3.50000009e-05
   6995, 0.000419999997, 2.99999992e-05
   6996, 0.000419999997, 2.49999994e-05
   6997, 0.000419999997, 1.99999995e-05
   6998, 0.000419999997, 1.49999996e-05
   6999, 0.000419999997, 9.99999975e-06
   7000, 0.000419999997, 4.99999987e-06
   7001, 0.000425000006, 0.000195000001
   7002, 0.000425000006, 0.000190000006
   7003, 0.000425000006, 0.000184999997
   7004, 0.000425000006, 0.000180000003
   7005, 0.000425000006, 0.000174999994
   7006, 0.000425000006, 0.000169999999
   7007, 0.000425000006, 0.000165000005
   7008, 0.000425000006, 0.000159999996
   7009, 0.000425000006, 0.000155000002
   7010, 0.000425000006, 0.000150000007
   7011, 0.000425000006, 0.000144999998
   7012, 0.000425000006, 0.000140000004
   7013, 0.000425000006, 0.000134999995
   7014, 0.000425000006,      0.00013
   7015, 0.000425000006, 0.000125000006
   7016, 0.000425000006, 0.000119999997
   7017, 0.000425000006, 0.000115000003
   7018, 0.000425000006, 0.000110000001
   7019, 0.000425000006, 0.000104999999
   7020, 0.000425000006, 9.99999975e-05
   7021, 0.000425000006, 9.50000031e-05
   7022, 0.000425000006, 9.00000014e-05
   7023, 0.000425000006, 8.49999997e-05
   7024, 0.000425000006, 7.9999998e-05
   7025, 0.000425000006, 7.50000036e-05
   7026, 0.000425000006, 7.00000019e-05
   7027, 0.000425000006, 6.50000002e-05
   7028, 0.000425000006, 5.99999985e-05
   7029, 0.000425000006, 5.50000004e-05
   7030, 0.000425000006, 4.99999987e-05
   7031, 0.000425000006, 4.50000007e-05
   7032, 0.000425000006, 3.9999999e-05
   7033, 0.000425000006, 3.50000009e-05
   7034, 0.000425000006, 2.99999992e-05
   7035, 0.000425000006, 2.49999994e-05
   7036, 0.000425000006, 1.99999995e-05
   7037, 0.000425000006, 1.49999996e-05
   7038, 0.000425000006, 9.99999975e-06
   7039, 0.000425000006, 4.99999987e-06
   7040, 0.000429999985, 0.000195000001
   7041, 0.000429999985, 0.000190000006
   7042, 0.000429999985, 0.000184999997
   7043, 0.000429999985, 0.000180000003
   7044, 0.000429999985, 0.000174999994
   7045, 0.000429999985, 0.000169999999
   7046, 0.000429999985, 0.000165000005
   7047, 0.000429999985, 0.000159999996
   7048, 0.000429999985, 0.000155000002
   7049, 0.000429999985, 0.000150000007
   7050, 0.000429999985, 0.000144999998
   7051, 0.000429999985, 0.000140000004
   7052, 0.000429999985, 0.000134999995
   7053, 0.000429999985,      0.00013
   7054, 0.000429999985, 0.000125000006
   7055, 0.000429999985, 0.000119999997
   7056, 0.000429999985, 0.000115000003
   7057, 0.000429999985, 0.000110000001
   7058, 0.000429999985, 0.000104999999
   7059, 0.000429999985, 9.99999975e-05
   7060, 0.000429999985, 9.50000031e-05
   7061, 0.000429999985, 9.00000014e-05
   7062, 0.000429999985, 8.49999997e-05
   7063, 0.000429999985, 7.9999998e-05
   7064, 0.000429999985, 7.50000036e-05
   7065, 0.000429999985, 7.00000019e-05
   7066, 0.000429999985, 6.50000002e-05
   7067, 0.000429999985, 5.99999985e-05
   7068, 0.000429999985, 5.50000004e-05
   7069, 0.000429999985, 4.99999987e-05
   7070, 0.000429999985, 4.50000007e-05
   7071, 0.000429999985, 3.9999999e-05
   7072, 0.000429999985, 3.50000009e-05
   7073, 0.000429999985, 2.99999992e-05
   7074, 0.000429999985, 2.49999994e-05
   7075, 0.000429999985, 1.99999995e-05
   7076, 0.000429999985, 1.49999996e-05
   7077, 0.000429999985, 9.99999975e-06
   7078, 0.000429999985, 4.99999987e-06
   7079, 0.000434999994, 0.000195000001
   7080, 0.000434999994, 0.000190000006
   7081, 0.000434999994, 0.000184999997
   7082, 0.000434999994, 0.000180000003
   7083, 0.000434999994, 0.000174999994
   7084, 0.000434999994, 0.000169999999
   7085, 0.000434999994, 0.000165000005
   7086, 0.000434999994, 0.000159999996
   7087, 0.000434999994, 0.000155000002
   7088, 0.000434999994, 0.000150000007
   7089, 0.000434999994, 0.000144999998
   7090, 0.000434999994, 0.000140000004
   7091, 0.000434999994, 0.000134999995
   7092, 0.000434999994,      0.00013
   7093, 0.000434999994, 0.000125000006
   7094, 0.000434999994, 0.000119999997
   7095, 0.000434999994, 0.000115000003
   7096, 0.000434999994, 0.000110000001
   7097, 0.000434999994, 0.000104999999
   7098, 0.000434999994, 9.99999975e-05
   7099, 0.000434999994, 9.50000031e-05
   7100, 0.000434999994, 9.00000014e-05
   7101, 0.000434999994, 8.49999997e-05
   7102, 0.000434999994, 7.9999998e-05
   7103, 0.000434999994, 7.50000036e-05
   7104, 0.000434999994, 7.00000019e-05
   7105, 0.000434999994, 6.50000002e-05
   7106, 0.000434999994, 5.99999985e-05
   7107, 0.000434999994, 5.50000004e-05
   7108, 0.000434999994, 4.99999987e-05
   7109, 0.000434999994, 4.50000007e-05
   7110, 0.000434999994, 3.9999999e-05
   7111, 0.000434999994, 3.50000009e-05
   7112, 0.000434999994, 2.99999992e-05
   7113, 0.000434999994, 2.49999994e-05
   7114, 0.000434999994, 1.99999995e-05
   7115, 0.000434999994, 1.49999996e-05
   7116, 0.000434999994, 9.99999975e-06
   7117, 0.000434999994, 4.99999987e-06
   7118, 0.000440000003, 0.000195000001
   7119, 0.000440000003, 0.000190000006
   7120, 0.000440000003, 0.000184999997
   7121, 0.000440000003, 0.000180000003
   7122, 0.000440000003, 0.000174999994
   7123, 0.000440000003, 0.000169999999
   7124, 0.000440000003, 0.000165000005
   7125, 0.000440000003, 0.000159999996
   7126, 0.000440000003, 0.000155000002
   7127, 0.000440000003, 0.000150000007
   7128, 0.000440000003, 0.000144999998
   7129, 0.000440000003, 0.000140000004
   7130, 0.000440000003, 0.000134999995
   7131, 0.000440000003,      0.00013
   7132, 0.000440000003, 0.000125000006
   7133, 0.000440000003, 0.000119999997
   7134, 0.000440000003, 0.000115000003
   7135, 0.000440000003, 0.000110000001
   7136, 0.000440000003, 0.000104999999
   7137, 0.000440000003, 9.99999975e-05
   7138, 0.000440000003, 9.50000031e-05
   7139, 0.000440000003, 9.00000014e-05
   7140, 0.000440000003, 8.49999997e-05
   7141, 0.000440000003, 7.9999998e-05
   7142, 0.000440000003, 7.50000036e-05
   7143, 0.000440000003, 7.00000019e-05
   7144, 0.000440000003, 6.50000002e-05
   7145, 0.000440000003, 5.99999985e-05
   7146, 0.000440000003, 5.50000004e-05
   7147, 0.000440000003, 4.99999987e-05
   7148, 0.000440000003, 4.50000007e-05
   7149, 0.000440000003, 3.9999999e-05
   7150, 0.000440000003, 3.50000009e-05
   7151, 0.000440000003, 2.99999992e-05
   7152, 0.000440000003, 2.49999994e-05
   7153, 0.000440000003, 1.99999995e-05
   7154, 0.000440000003, 1.49999996e-05
   7155, 0.000440000003, 9.99999975e-06
   7156, 0.000440000003, 4.99999987e-06
   7157, 0.000445000012, 0.000195000001
   7158, 0.000445000012, 0.000190000006
   7159, 0.000445000012, 0.000184999997
   7160, 0.000445000012, 0.000180000003
   7161, 0.000445000012, 0.000174999994
   7162, 0.000445000012, 0.000169999999
   7163, 0.000445000012, 0.000165000005
   7164, 0.000445000012, 0.000159999996
   7165, 0.000445000012, 0.000155000002
   7166, 0.000445000012, 0.000150000007
   7167, 0.000445000012, 0.000144999998
   7168, 0.000445000012, 0.000140000004
   7169, 0.000445000012, 0.000134999995
   7170, 0.000445000012,      0.00013
   7171, 0.000445000012, 0.000125000006
   7172, 0.000445000012, 0.000119999997
   7173, 0.000445000012, 0.000115000003
   7174, 0.000445000012, 0.000110000001
   7175, 0.000445000012, 0.000104999999
   7176, 0.000445000012, 9.99999975e-05
   7177, 0.000445000012, 9.50000031e-05
   7178, 0.000445000012, 9.00000014e-05
   7179, 0.000445000012, 8.49999997e-05
   7180, 0.000445000012, 7.9999998e-05
   7181, 0.000445000012, 7.50000036e-05
   7182, 0.000445000012, 7.00000019e-05
   7183, 0.000445000012, 6.50000002e-05
   7184, 0.000445000012, 5.99999985e-05
   7185, 0.000445000012, 5.50000004e-05
   7186, 0.000445000012, 4.99999987e-05
   7187, 0.000445000012, 4.50000007e-05
   7188, 0.000445000012, 3.9999999e-05
   7189, 0.000445000012, 3.50000009e-05
   7190, 0.000445000012, 2.99999992e-05
   7191, 0.000445000012, 2.49999994e-05
   7192, 0.000445000012, 1.99999995e-05
   7193, 0.000445000012, 1.49999996e-05
   7194, 0.000445000012, 9.99999975e-06
   7195, 0.000445000012, 4.99999987e-06
   7196, 0.000449999992, 0.000195000001
   7197, 0.000449999992, 0.000190000006
   7198, 0.000449999992, 0.000184999997
   7199, 0.000449999992, 0.000180000003
   7200, 0.000449999992, 0.000174999994
   7201, 0.000449999992, 0.000169999999
   7202, 0.000449999992, 0.000165000005
   7203, 0.000449999992, 0.000159999996
   7204, 0.000449999992, 0.000155000002
   7205, 0.000449999992, 0.000150000007
   7206, 0.000449999992, 0.000144999998
   7207, 0.000449999992, 0.000140000004
   7208, 0.000449999992, 0.000134999995
   7209, 0.000449999992,      0.00013
   7210, 0.000449999992, 0.000125000006
   7211, 0.000449999992, 0.000119999997
   7212, 0.000449999992, 0.000115000003
   7213, 0.000449999992, 0.000110000001
   7214, 0.000449999992, 0.000104999999
   7215, 0.000449999992, 9.99999975e-05
   7216, 0.000449999992, 9.50000031e-05
   7217, 0.000449999992, 9.00000014e-05
   7218, 0.000449999992, 8.49999997e-05
   7219, 0.000449999992, 7.9999998e-05
   7220, 0.000449999992, 7.50000036e-05
   7221, 0.000449999992, 7.00000019e-05
   7222, 0.000449999992, 6.50000002e-05
   7223, 0.000449999992, 5.99999985e-05
   7224, 0.000449999992, 5.50000004e-05
   7225, 0.000449999992, 4.99999987e-05
   7226, 0.000449999992, 4.50000007e-05
   7227, 0.000449999992, 3.9999999e-05
   7228, 0.000449999992, 3.50000009e-05
   7229, 0.000449999992, 2.99999992e-05
   7230, 0.000449999992, 2.49999994e-05
   7231, 0.000449999992, 1.99999995e-05
   7232, 0.000449999992, 1.49999996e-05
   7233, 0.000449999992, 9.99999975e-06
   7234, 0.000449999992, 4.99999987e-06
   7235, 0.000455000001, 0.000195000001
   7236, 0.000455000001, 0.000190000006
   7237, 0.000455000001, 0.000184999997
   7238, 0.000455000001, 0.000180000003
   7239, 0.000455000001, 0.000174999994
   7240, 0.000455000001, 0.000169999999
   7241, 0.000455000001, 0.000165000005
   7242, 0.000455000001, 0.000159999996
   7243, 0.000455000001, 0.000155000002
   7244, 0.000455000001, 0.000150000007
   7245, 0.000455000001, 0.000144999998
   7246, 0.000455000001, 0.000140000004
   7247, 0.000455000001, 0.000134999995
   7248, 0.000455000001,      0.00013
   7249, 0.000455000001, 0.000125000006
   7250, 0.000455000001, 0.000119999997
   7251, 0.000455000001, 0.000115000003
   7252, 0.000455000001, 0.000110000001
   7253, 0.000455000001, 0.000104999999
   7254, 0.000455000001, 9.99999975e-05
   7255, 0.000455000001, 9.50000031e-05
   7256, 0.000455000001, 9.00000014e-05
   7257, 0.000455000001, 8.49999997e-05
   7258, 0.000455000001, 7.9999998e-05
   7259, 0.000455000001, 7.50000036e-05
   7260, 0.000455000001, 7.00000019e-05
   7261, 0.000455000001, 6.50000002e-05
   7262, 0.000455000001, 5.99999985e-05
   7263, 0.000455000001, 5.50000004e-05
   7264, 0.000455000001, 4.99999987e-05
   7265, 0.000455000001, 4.50000007e-05
   7266, 0.000455000001, 3.9999999e-05
   7267, 0.000455000001, 3.50000009e-05
   7268, 0.000455000001, 2.99999992e-05
   7269, 0.000455000001, 2.49999994e-05
   7270, 0.000455000001, 1.99999995e-05
   7271, 0.000455000001, 1.49999996e-05
   7272, 0.000455000001, 9.99999975e-06
   7273, 0.000455000001, 4.99999987e-06
   7274, 0.00046000001, 0.000195000001
   7275, 0.00046000001, 0.000190000006
   7276, 0.00046000001, 0.000184999997
   7277, 0.00046000001, 0.000180000003
   7278, 0.00046000001, 0.000174999994
   7279, 0.00046000001, 0.000169999999
   7280, 0.00046000001, 0.000165000005
   7281, 0.00046000001, 0.000159999996
   7282, 0.00046000001, 0.000155000002
   7283, 0.00046000001, 0.000150000007
   7284, 0.00046000001, 0.000144999998
   7285, 0.00046000001, 0.000140000004
   7286, 0.00046000001, 0.000134999995
   7287, 0.00046000001,      0.00013
   7288, 0.00046000001, 0.000125000006
   7289, 0.00046000001, 0.000119999997
   7290, 0.00046000001, 0.000115000003
   7291, 0.00046000001, 0.000110000001
   7292, 0.00046000001, 0.000104999999
   7293, 0.00046000001, 9.99999975e-05
   7294, 0.00046000001, 9.50000031e-05
   7295, 0.00046000001, 9.00000014e-05
   7296, 0.00046000001, 8.49999997e-05
   7297, 0.00046000001, 7.9999998e-05
   7298, 0.00046000001, 7.50000036e-05
   7299, 0.00046000001, 7.00000019e-05
   7300, 0.00046000001, 6.50000002e-05
   7301, 0.00046000001, 5.99999985e-05
   7302, 0.00046000001, 5.50000004e-05
   7303, 0.00046000001, 4.99999987e-05
   7304, 0.00046000001, 4.50000007e-05
   7305, 0.00046000001, 3.9999999e-05
   7306, 0.00046000001, 3.50000009e-05
   7307, 0.00046000001, 2.99999992e-05
   7308, 0.00046000001, 2.49999994e-05
   7309, 0.00046000001, 1.99999995e-05
   7310, 0.00046000001, 1.49999996e-05
   7311, 0.00046000001, 9.99999975e-06
   7312, 0.00046000001, 4.99999987e-06
   7313, 0.00046499999, 0.000195000001
   7314, 0.00046499999, 0.000190000006
   7315, 0.00046499999, 0.000184999997
   7316, 0.00046499999, 0.000180000003
   7317, 0.00046499999, 0.000174999994
   7318, 0.00046499999, 0.000169999999
   7319, 0.00046499999, 0.000165000005
   7320, 0.00046499999, 0.000159999996
   7321, 0.00046499999, 0.000155000002
   7322, 0.00046499999, 0.000150000007
   7323, 0.00046499999, 0.000144999998
   7324, 0.00046499999, 0.000140000004
   7325, 0.00046499999, 0.000134999995
   7326, 0.00046499999,      0.00013
   7327, 0.00046499999, 0.000125000006
   7328, 0.00046499999, 0.000119999997
   7329, 0.00046499999, 0.000115000003
   7330, 0.00046499999, 0.000110000001
   7331, 0.00046499999, 0.000104999999
   7332, 0.00046499999, 9.99999975e-05
   7333, 0.00046499999, 9.50000031e-05
   7334, 0.00046499999, 9.00000014e-05
   7335, 0.00046499999, 8.49999997e-05
   7336, 0.00046499999, 7.9999998e-05
   7337, 0.00046499999, 7.50000036e-05
   7338, 0.00046499999, 7.00000019e-05
   7339, 0.00046499999, 6.50000002e-05
   7340, 0.00046499999, 5.99999985e-05
   7341, 0.00046499999, 5.50000004e-05
   7342, 0.00046499999, 4.99999987e-05
   7343, 0.00046499999, 4.50000007e-05
   7344, 0.00046499999, 3.9999999e-05
   7345, 0.00046499999, 3.50000009e-05
   7346, 0.00046499999, 2.99999992e-05
   7347, 0.00046499999, 2.49999994e-05
   7348, 0.00046499999, 1.99999995e-05
   7349, 0.00046499999, 1.49999996e-05
   7350, 0.00046499999, 9.99999975e-06
   7351, 0.00046499999, 4.99999987e-06
   7352, 0.000469999999, 0.000195000001
   7353, 0.000469999999, 0.000190000006
   7354, 0.000469999999, 0.000184999997
   7355, 0.000469999999, 0.000180000003
   7356, 0.000469999999, 0.000174999994
   7357, 0.000469999999, 0.000169999999
   7358, 0.000469999999, 0.000165000005
   7359, 0.000469999999, 0.000159999996
   7360, 0.000469999999, 0.000155000002
   7361, 0.000469999999, 0.000150000007
   7362, 0.000469999999, 0.000144999998
   7363, 0.000469999999, 0.000140000004
   7364, 0.000469999999, 0.000134999995
   7365, 0.000469999999,      0.00013
   7366, 0.000469999999, 0.000125000006
   7367, 0.000469999999, 0.000119999997
   7368, 0.000469999999, 0.000115000003
   7369, 0.000469999999, 0.000110000001
   7370, 0.000469999999, 0.000104999999
   7371, 0.000469999999, 9.99999975e-05
   7372, 0.000469999999, 9.50000031e-05
   7373, 0.000469999999, 9.00000014e-05
   7374, 0.000469999999, 8.49999997e-05
   7375, 0.000469999999, 7.9999998e-05
   7376, 0.000469999999, 7.50000036e-05
   7377, 0.000469999999, 7.00000019e-05
   7378, 0.000469999999, 6.50000002e-05
   7379, 0.000469999999, 5.99999985e-05
   7380, 0.000469999999, 5.50000004e-05
   7381, 0.000469999999, 4.99999987e-05
   7382, 0.000469999999, 4.50000007e-05
   7383, 0.000469999999, 3.9999999e-05
   7384, 0.000469999999, 3.50000009e-05
   7385, 0.000469999999, 2.99999992e-05
   7386, 0.000469999999, 2.49999994e-05
   7387, 0.000469999999, 1.99999995e-05
   7388, 0.000469999999, 1.49999996e-05
   7389, 0.000469999999, 9.99999975e-06
   7390, 0.000469999999, 4.99999987e-06
   7391, 0.000475000008, 0.000195000001
   7392, 0.000475000008, 0.000190000006
   7393, 0.000475000008, 0.000184999997
   7394, 0.000475000008, 0.000180000003
   7395, 0.000475000008, 0.000174999994
   7396, 0.000475000008, 0.000169999999
   7397, 0.000475000008, 0.000165000005
   7398, 0.000475000008, 0.000159999996
   7399, 0.000475000008, 0.000155000002
   7400, 0.000475000008, 0.000150000007
   7401, 0.000475000008, 0.000144999998
   7402, 0.000475000008, 0.000140000004
   7403, 0.000475000008, 0.000134999995
   7404, 0.000475000008,      0.00013
   7405, 0.000475000008, 0.000125000006
   7406, 0.000475000008, 0.000119999997
   7407, 0.000475000008, 0.000115000003
   7408, 0.000475000008, 0.000110000001
   7409, 0.000475000008, 0.000104999999
   7410, 0.000475000008, 9.99999975e-05
   7411, 0.000475000008, 9.50000031e-05
   7412, 0.000475000008, 9.00000014e-05
   7413, 0.000475000008, 8.49999997e-05
   7414, 0.000475000008, 7.9999998e-05
   7415, 0.000475000008, 7.50000036e-05
   7416, 0.000475000008, 7.00000019e-05
   7417, 0.000475000008, 6.50000002e-05
   7418, 0.000475000008, 5.99999985e-05
   7419, 0.000475000008, 5.50000004e-05
   7420, 0.000475000008, 4.99999987e-05
   7421, 0.000475000008, 4.50000007e-05
   7422, 0.000475000008, 3.9999999e-05
   7423, 0.000475000008, 3.50000009e-05
   7424, 0.000475000008, 2.99999992e-05
   7425, 0.000475000008, 2.49999994e-05
   7426, 0.000475000008, 1.99999995e-05
   7427, 0.000475000008, 1.49999996e-05
   7428, 0.000475000008, 9.99999975e-06
   7429, 0.000475000008, 4.99999987e-06
   7430, 0.000479999988, 0.000195000001
   7431, 0.000479999988, 0.000190000006
   7432, 0.000479999988, 0.000184999997
   7433, 0.000479999988, 0.000180000003
   7434, 0.000479999988, 0.000174999994
   7435, 0.000479999988, 0.000169999999
   7436, 0.000479999988, 0.000165000005
   7437, 0.000479999988, 0.000159999996
   7438, 0.000479999988, 0.000155000002
   7439, 0.000479999988, 0.000150000007
   7440, 0.000479999988, 0.000144999998
   7441, 0.000479999988, 0.000140000004
   7442, 0.000479999988, 0.000134999995
   7443, 0.000479999988,      0.00013
   7444, 0.000479999988, 0.000125000006
   7445, 0.000479999988, 0.000119999997
   7446, 0.000479999988, 0.000115000003
   7447, 0.000479999988, 0.000110000001
   7448, 0.000479999988, 0.000104999999
   7449, 0.000479999988, 9.99999975e-05
   7450, 0.000479999988, 9.50000031e-05
   7451, 0.000479999988, 9.00000014e-05
   7452, 0.000479999988, 8.49999997e-05
   7453, 0.000479999988, 7.9999998e-05
   7454, 0.000479999988, 7.50000036e-05
   7455, 0.000479999988, 7.00000019e-05
   7456, 0.000479999988, 6.50000002e-05
   7457, 0.000479999988, 5.99999985e-05
   7458, 0.000479999988, 5.50000004e-05
   7459, 0.000479999988, 4.99999987e-05
   7460, 0.000479999988, 4.50000007e-05
   7461, 0.000479999988, 3.9999999e-05
   7462, 0.000479999988, 3.50000009e-05
   7463, 0.000479999988, 2.99999992e-05
   7464, 0.000479999988, 2.49999994e-05
   7465, 0.000479999988, 1.99999995e-05
   7466, 0.000479999988, 1.49999996e-05
   7467, 0.000479999988, 9.99999975e-06
   7468, 0.000479999988, 4.99999987e-06
   7469, 0.000484999997, 0.000195000001
   7470, 0.000484999997, 0.000190000006
   7471, 0.000484999997, 0.000184999997
   7472, 0.000484999997, 0.000180000003
   7473, 0.000484999997, 0.000174999994
   7474, 0.000484999997, 0.000169999999
   7475, 0.000484999997, 0.000165000005
   7476, 0.000484999997, 0.000159999996
   7477, 0.000484999997, 0.000155000002
   7478, 0.000484999997, 0.000150000007
   7479, 0.000484999997, 0.000144999998
   7480, 0.000484999997, 0.000140000004
   7481, 0.000484999997, 0.000134999995
   7482, 0.000484999997,      0.00013
   7483, 0.000484999997, 0.000125000006
   7484, 0.000484999997, 0.000119999997
   7485, 0.000484999997, 0.000115000003
   7486, 0.000484999997, 0.000110000001
   7487, 0.000484999997, 0.000104999999
   7488, 0.000484999997, 9.99999975e-05
   7489, 0.000484999997, 9.50000031e-05
   7490, 0.000484999997, 9.00000014e-05
   7491, 0.000484999997, 8.49999997e-05
   7492, 0.000484999997, 7.9999998e-05
   7493, 0.000484999997, 7.50000036e-05
   7494, 0.000484999997, 7.00000019e-05
   7495, 0.000484999997, 6.50000002e-05
   7496, 0.000484999997, 5.99999985e-05
   7497, 0.000484999997, 5.50000004e-05
   7498, 0.000484999997, 4.99999987e-05
   7499, 0.000484999997, 4.50000007e-05
   7500, 0.000484999997, 3.9999999e-05
   7501, 0.000484999997, 3.50000009e-05
   7502, 0.000484999997, 2.99999992e-05
   7503, 0.000484999997, 2.49999994e-05
   7504, 0.000484999997, 1.99999995e-05
   7505, 0.000484999997, 1.49999996e-05
   7506, 0.000484999997, 9.99999975e-06
   7507, 0.000484999997, 4.99999987e-06
   7508, 0.000490000006, 0.000195000001
   7509, 0.000490000006, 0.000190000006
   7510, 0.000490000006, 0.000184999997
   7511, 0.000490000006, 0.000180000003
   7512, 0.000490000006, 0.000174999994
   7513, 0.000490000006, 0.000169999999
   7514, 0.000490000006, 0.000165000005
   7515, 0.000490000006, 0.000159999996
   7516, 0.000490000006, 0.000155000002
   7517, 0.000490000006, 0.000150000007
   7518, 0.000490000006, 0.000144999998
   7519, 0.000490000006, 0.000140000004
   7520, 0.000490000006, 0.000134999995
   7521, 0.000490000006,      0.00013
   7522, 0.000490000006, 0.000125000006
   7523, 0.000490000006, 0.000119999997
   7524, 0.000490000006, 0.000115000003
   7525, 0.000490000006, 0.000110000001
   7526, 0.000490000006, 0.000104999999
   7527, 0.000490000006, 9.99999975e-05
   7528, 0.000490000006, 9.50000031e-05
   7529, 0.000490000006, 9.00000014e-05
   7530, 0.000490000006, 8.49999997e-05
   7531, 0.000490000006, 7.9999998e-05
   7532, 0.000490000006, 7.50000036e-05
   7533, 0.000490000006, 7.00000019e-05
   7534, 0.000490000006, 6.50000002e-05
   7535, 0.000490000006, 5.99999985e-05
   7536, 0.000490000006, 5.50000004e-05
   7537, 0.000490000006, 4.99999987e-05
   7538, 0.000490000006, 4.50000007e-05
   7539, 0.000490000006, 3.9999999e-05
   7540, 0.000490000006, 3.50000009e-05
   7541, 0.000490000006, 2.99999992e-05
   7542, 0.000490000006, 2.49999994e-05
   7543, 0.000490000006, 1.99999995e-05
   7544, 0.000490000006, 1.49999996e-05
   7545, 0.000490000006, 9.99999975e-06
   7546, 0.000490000006, 4.99999987e-06
   7547, 0.000494999986, 0.000195000001
   7548, 0.000494999986, 0.000190000006
   7549, 0.000494999986, 0.000184999997
   7550, 0.000494999986, 0.000180000003
   7551, 0.000494999986, 0.000174999994
   7552, 0.000494999986, 0.000169999999
   7553, 0.000494999986, 0.000165000005
   7554, 0.000494999986, 0.000159999996
   7555, 0.000494999986, 0.000155000002
   7556, 0.000494999986, 0.000150000007
   7557, 0.000494999986, 0.000144999998
   7558, 0.000494999986, 0.000140000004
   7559, 0.000494999986, 0.000134999995
   7560, 0.000494999986,      0.00013
   7561, 0.000494999986, 0.000125000006
   7562, 0.000494999986, 0.000119999997
   7563, 0.000494999986, 0.000115000003
   7564, 0.000494999986, 0.000110000001
   7565, 0.000494999986, 0.000104999999
   7566, 0.000494999986, 9.99999975e-05
   7567, 0.000494999986, 9.50000031e-05
   7568, 0.000494999986, 9.00000014e-05
   7569, 0.000494999986, 8.49999997e-05
   7570, 0.000494999986, 7.9999998e-05
   7571, 0.000494999986, 7.50000036e-05
   7572, 0.000494999986, 7.00000019e-05
   7573, 0.000494999986, 6.50000002e-05
   7574, 0.000494999986, 5.99999985e-05
   7575, 0.000494999986, 5.50000004e-05
   7576, 0.000494999986, 4.99999987e-05
   7577, 0.000494999986, 4.50000007e-05
   7578, 0.000494999986, 3.9999999e-05
   7579, 0.000494999986, 3.50000009e-05
   7580, 0.000494999986, 2.99999992e-05
   7581, 0.000494999986, 2.49999994e-05
   7582, 0.000494999986, 1.99999995e-05
   7583, 0.000494999986, 1.49999996e-05
   7584, 0.000494999986, 9.99999975e-06
   7585, 0.000494999986, 4.99999987e-06
*Element, type=CPE4R
   1,    1,    9,  527,  324
   2,    9,   10,  528,  527
   3,   10,   11,  529,  528
   4,   11,   12,  530,  529
   5,   12,   13,  531,  530
   6,   13,   14,  532,  531
   7,   14,   15,  533,  532
   8,   15,   16,  534,  533
   9,   16,   17,  535,  534
  10,   17,   18,  536,  535
  11,   18,   19,  537,  536
  12,   19,   20,  538,  537
  13,   20,   21,  539,  538
  14,   21,   22,  540,  539
  15,   22,   23,  541,  540
  16,   23,   24,  542,  541
  17,   24,   25,  543,  542
  18,   25,   26,  544,  543
  19,   26,   27,  545,  544
  20,   27,   28,  546,  545
  21,   28,   29,  547,  546
  22,   29,   30,  548,  547
  23,   30,   31,  549,  548
  24,   31,   32,  550,  549
  25,   32,   33,  551,  550
  26,   33,   34,  552,  551
  27,   34,   35,  553,  552
  28,   35,   36,  554,  553
  29,   36,   37,  555,  554
  30,   37,   38,  556,  555
  31,   38,   39,  557,  556
  32,   39,   40,  558,  557
  33,   40,   41,  559,  558
  34,   41,   42,  560,  559
  35,   42,   43,  561,  560
  36,   43,   44,  562,  561
  37,   44,   45,  563,  562
  38,   45,   46,  564,  563
  39,   46,   47,  565,  564
  40,   47,    2,   48,  565
  41,  324,  527,  566,  323
  42,  527,  528,  567,  566
  43,  528,  529,  568,  567
  44,  529,  530,  569,  568
  45,  530,  531,  570,  569
  46,  531,  532,  571,  570
  47,  532,  533,  572,  571
  48,  533,  534,  573,  572
  49,  534,  535,  574,  573
  50,  535,  536,  575,  574
  51,  536,  537,  576,  575
  52,  537,  538,  577,  576
  53,  538,  539,  578,  577
  54,  539,  540,  579,  578
  55,  540,  541,  580,  579
  56,  541,  542,  581,  580
  57,  542,  543,  582,  581
  58,  543,  544,  583,  582
  59,  544,  545,  584,  583
  60,  545,  546,  585,  584
  61,  546,  547,  586,  585
  62,  547,  548,  587,  586
  63,  548,  549,  588,  587
  64,  549,  550,  589,  588
  65,  550,  551,  590,  589
  66,  551,  552,  591,  590
  67,  552,  553,  592,  591
  68,  553,  554,  593,  592
  69,  554,  555,  594,  593
  70,  555,  556,  595,  594
  71,  556,  557,  596,  595
  72,  557,  558,  597,  596
  73,  558,  559,  598,  597
  74,  559,  560,  599,  598
  75,  560,  561,  600,  599
  76,  561,  562,  601,  600
  77,  562,  563,  602,  601
  78,  563,  564,  603,  602
  79,  564,  565,  604,  603
  80,  565,   48,   49,  604
  81,  323,  566,  605,  322
  82,  566,  567,  606,  605
  83,  567,  568,  607,  606
  84,  568,  569,  608,  607
  85,  569,  570,  609,  608
  86,  570,  571,  610,  609
  87,  571,  572,  611,  610
  88,  572,  573,  612,  611
  89,  573,  574,  613,  612
  90,  574,  575,  614,  613
  91,  575,  576,  615,  614
  92,  576,  577,  616,  615
  93,  577,  578,  617,  616
  94,  578,  579,  618,  617
  95,  579,  580,  619,  618
  96,  580,  581,  620,  619
  97,  581,  582,  621,  620
  98,  582,  583,  622,  621
  99,  583,  584,  623,  622
 100,  584,  585,  624,  623
 101,  585,  586,  625,  624
 102,  586,  587,  626,  625
 103,  587,  588,  627,  626
 104,  588,  589,  628,  627
 105,  589,  590,  629,  628
 106,  590,  591,  630,  629
 107,  591,  592,  631,  630
 108,  592,  593,  632,  631
 109,  593,  594,  633,  632
 110,  594,  595,  634,  633
 111,  595,  596,  635,  634
 112,  596,  597,  636,  635
 113,  597,  598,  637,  636
 114,  598,  599,  638,  637
 115,  599,  600,  639,  638
 116,  600,  601,  640,  639
 117,  601,  602,  641,  640
 118,  602,  603,  642,  641
 119,  603,  604,  643,  642
 120,  604,   49,   50,  643
 121,  322,  605,  644,  321
 122,  605,  606,  645,  644
 123,  606,  607,  646,  645
 124,  607,  608,  647,  646
 125,  608,  609,  648,  647
 126,  609,  610,  649,  648
 127,  610,  611,  650,  649
 128,  611,  612,  651,  650
 129,  612,  613,  652,  651
 130,  613,  614,  653,  652
 131,  614,  615,  654,  653
 132,  615,  616,  655,  654
 133,  616,  617,  656,  655
 134,  617,  618,  657,  656
 135,  618,  619,  658,  657
 136,  619,  620,  659,  658
 137,  620,  621,  660,  659
 138,  621,  622,  661,  660
 139,  622,  623,  662,  661
 140,  623,  624,  663,  662
 141,  624,  625,  664,  663
 142,  625,  626,  665,  664
 143,  626,  627,  666,  665
 144,  627,  628,  667,  666
 145,  628,  629,  668,  667
 146,  629,  630,  669,  668
 147,  630,  631,  670,  669
 148,  631,  632,  671,  670
 149,  632,  633,  672,  671
 150,  633,  634,  673,  672
 151,  634,  635,  674,  673
 152,  635,  636,  675,  674
 153,  636,  637,  676,  675
 154,  637,  638,  677,  676
 155,  638,  639,  678,  677
 156,  639,  640,  679,  678
 157,  640,  641,  680,  679
 158,  641,  642,  681,  680
 159,  642,  643,  682,  681
 160,  643,   50,   51,  682
 161,  321,  644,  683,  320
 162,  644,  645,  684,  683
 163,  645,  646,  685,  684
 164,  646,  647,  686,  685
 165,  647,  648,  687,  686
 166,  648,  649,  688,  687
 167,  649,  650,  689,  688
 168,  650,  651,  690,  689
 169,  651,  652,  691,  690
 170,  652,  653,  692,  691
 171,  653,  654,  693,  692
 172,  654,  655,  694,  693
 173,  655,  656,  695,  694
 174,  656,  657,  696,  695
 175,  657,  658,  697,  696
 176,  658,  659,  698,  697
 177,  659,  660,  699,  698
 178,  660,  661,  700,  699
 179,  661,  662,  701,  700
 180,  662,  663,  702,  701
 181,  663,  664,  703,  702
 182,  664,  665,  704,  703
 183,  665,  666,  705,  704
 184,  666,  667,  706,  705
 185,  667,  668,  707,  706
 186,  668,  669,  708,  707
 187,  669,  670,  709,  708
 188,  670,  671,  710,  709
 189,  671,  672,  711,  710
 190,  672,  673,  712,  711
 191,  673,  674,  713,  712
 192,  674,  675,  714,  713
 193,  675,  676,  715,  714
 194,  676,  677,  716,  715
 195,  677,  678,  717,  716
 196,  678,  679,  718,  717
 197,  679,  680,  719,  718
 198,  680,  681,  720,  719
 199,  681,  682,  721,  720
 200,  682,   51,   52,  721
 201,  320,  683,  722,  319
 202,  683,  684,  723,  722
 203,  684,  685,  724,  723
 204,  685,  686,  725,  724
 205,  686,  687,  726,  725
 206,  687,  688,  727,  726
 207,  688,  689,  728,  727
 208,  689,  690,  729,  728
 209,  690,  691,  730,  729
 210,  691,  692,  731,  730
 211,  692,  693,  732,  731
 212,  693,  694,  733,  732
 213,  694,  695,  734,  733
 214,  695,  696,  735,  734
 215,  696,  697,  736,  735
 216,  697,  698,  737,  736
 217,  698,  699,  738,  737
 218,  699,  700,  739,  738
 219,  700,  701,  740,  739
 220,  701,  702,  741,  740
 221,  702,  703,  742,  741
 222,  703,  704,  743,  742
 223,  704,  705,  744,  743
 224,  705,  706,  745,  744
 225,  706,  707,  746,  745
 226,  707,  708,  747,  746
 227,  708,  709,  748,  747
 228,  709,  710,  749,  748
 229,  710,  711,  750,  749
 230,  711,  712,  751,  750
 231,  712,  713,  752,  751
 232,  713,  714,  753,  752
 233,  714,  715,  754,  753
 234,  715,  716,  755,  754
 235,  716,  717,  756,  755
 236,  717,  718,  757,  756
 237,  718,  719,  758,  757
 238,  719,  720,  759,  758
 239,  720,  721,  760,  759
 240,  721,   52,   53,  760
 241,  319,  722,  761,  318
 242,  722,  723,  762,  761
 243,  723,  724,  763,  762
 244,  724,  725,  764,  763
 245,  725,  726,  765,  764
 246,  726,  727,  766,  765
 247,  727,  728,  767,  766
 248,  728,  729,  768,  767
 249,  729,  730,  769,  768
 250,  730,  731,  770,  769
 251,  731,  732,  771,  770
 252,  732,  733,  772,  771
 253,  733,  734,  773,  772
 254,  734,  735,  774,  773
 255,  735,  736,  775,  774
 256,  736,  737,  776,  775
 257,  737,  738,  777,  776
 258,  738,  739,  778,  777
 259,  739,  740,  779,  778
 260,  740,  741,  780,  779
 261,  741,  742,  781,  780
 262,  742,  743,  782,  781
 263,  743,  744,  783,  782
 264,  744,  745,  784,  783
 265,  745,  746,  785,  784
 266,  746,  747,  786,  785
 267,  747,  748,  787,  786
 268,  748,  749,  788,  787
 269,  749,  750,  789,  788
 270,  750,  751,  790,  789
 271,  751,  752,  791,  790
 272,  752,  753,  792,  791
 273,  753,  754,  793,  792
 274,  754,  755,  794,  793
 275,  755,  756,  795,  794
 276,  756,  757,  796,  795
 277,  757,  758,  797,  796
 278,  758,  759,  798,  797
 279,  759,  760,  799,  798
 280,  760,   53,   54,  799
 281,  318,  761,  800,  317
 282,  761,  762,  801,  800
 283,  762,  763,  802,  801
 284,  763,  764,  803,  802
 285,  764,  765,  804,  803
 286,  765,  766,  805,  804
 287,  766,  767,  806,  805
 288,  767,  768,  807,  806
 289,  768,  769,  808,  807
 290,  769,  770,  809,  808
 291,  770,  771,  810,  809
 292,  771,  772,  811,  810
 293,  772,  773,  812,  811
 294,  773,  774,  813,  812
 295,  774,  775,  814,  813
 296,  775,  776,  815,  814
 297,  776,  777,  816,  815
 298,  777,  778,  817,  816
 299,  778,  779,  818,  817
 300,  779,  780,  819,  818
 301,  780,  781,  820,  819
 302,  781,  782,  821,  820
 303,  782,  783,  822,  821
 304,  783,  784,  823,  822
 305,  784,  785,  824,  823
 306,  785,  786,  825,  824
 307,  786,  787,  826,  825
 308,  787,  788,  827,  826
 309,  788,  789,  828,  827
 310,  789,  790,  829,  828
 311,  790,  791,  830,  829
 312,  791,  792,  831,  830
 313,  792,  793,  832,  831
 314,  793,  794,  833,  832
 315,  794,  795,  834,  833
 316,  795,  796,  835,  834
 317,  796,  797,  836,  835
 318,  797,  798,  837,  836
 319,  798,  799,  838,  837
 320,  799,   54,   55,  838
 321,  317,  800,  839,  316
 322,  800,  801,  840,  839
 323,  801,  802,  841,  840
 324,  802,  803,  842,  841
 325,  803,  804,  843,  842
 326,  804,  805,  844,  843
 327,  805,  806,  845,  844
 328,  806,  807,  846,  845
 329,  807,  808,  847,  846
 330,  808,  809,  848,  847
 331,  809,  810,  849,  848
 332,  810,  811,  850,  849
 333,  811,  812,  851,  850
 334,  812,  813,  852,  851
 335,  813,  814,  853,  852
 336,  814,  815,  854,  853
 337,  815,  816,  855,  854
 338,  816,  817,  856,  855
 339,  817,  818,  857,  856
 340,  818,  819,  858,  857
 341,  819,  820,  859,  858
 342,  820,  821,  860,  859
 343,  821,  822,  861,  860
 344,  822,  823,  862,  861
 345,  823,  824,  863,  862
 346,  824,  825,  864,  863
 347,  825,  826,  865,  864
 348,  826,  827,  866,  865
 349,  827,  828,  867,  866
 350,  828,  829,  868,  867
 351,  829,  830,  869,  868
 352,  830,  831,  870,  869
 353,  831,  832,  871,  870
 354,  832,  833,  872,  871
 355,  833,  834,  873,  872
 356,  834,  835,  874,  873
 357,  835,  836,  875,  874
 358,  836,  837,  876,  875
 359,  837,  838,  877,  876
 360,  838,   55,   56,  877
 361,  316,  839,  878,  315
 362,  839,  840,  879,  878
 363,  840,  841,  880,  879
 364,  841,  842,  881,  880
 365,  842,  843,  882,  881
 366,  843,  844,  883,  882
 367,  844,  845,  884,  883
 368,  845,  846,  885,  884
 369,  846,  847,  886,  885
 370,  847,  848,  887,  886
 371,  848,  849,  888,  887
 372,  849,  850,  889,  888
 373,  850,  851,  890,  889
 374,  851,  852,  891,  890
 375,  852,  853,  892,  891
 376,  853,  854,  893,  892
 377,  854,  855,  894,  893
 378,  855,  856,  895,  894
 379,  856,  857,  896,  895
 380,  857,  858,  897,  896
 381,  858,  859,  898,  897
 382,  859,  860,  899,  898
 383,  860,  861,  900,  899
 384,  861,  862,  901,  900
 385,  862,  863,  902,  901
 386,  863,  864,  903,  902
 387,  864,  865,  904,  903
 388,  865,  866,  905,  904
 389,  866,  867,  906,  905
 390,  867,  868,  907,  906
 391,  868,  869,  908,  907
 392,  869,  870,  909,  908
 393,  870,  871,  910,  909
 394,  871,  872,  911,  910
 395,  872,  873,  912,  911
 396,  873,  874,  913,  912
 397,  874,  875,  914,  913
 398,  875,  876,  915,  914
 399,  876,  877,  916,  915
 400,  877,   56,   57,  916
 401,  315,  878,  917,  314
 402,  878,  879,  918,  917
 403,  879,  880,  919,  918
 404,  880,  881,  920,  919
 405,  881,  882,  921,  920
 406,  882,  883,  922,  921
 407,  883,  884,  923,  922
 408,  884,  885,  924,  923
 409,  885,  886,  925,  924
 410,  886,  887,  926,  925
 411,  887,  888,  927,  926
 412,  888,  889,  928,  927
 413,  889,  890,  929,  928
 414,  890,  891,  930,  929
 415,  891,  892,  931,  930
 416,  892,  893,  932,  931
 417,  893,  894,  933,  932
 418,  894,  895,  934,  933
 419,  895,  896,  935,  934
 420,  896,  897,  936,  935
 421,  897,  898,  937,  936
 422,  898,  899,  938,  937
 423,  899,  900,  939,  938
 424,  900,  901,  940,  939
 425,  901,  902,  941,  940
 426,  902,  903,  942,  941
 427,  903,  904,  943,  942
 428,  904,  905,  944,  943
 429,  905,  906,  945,  944
 430,  906,  907,  946,  945
 431,  907,  908,  947,  946
 432,  908,  909,  948,  947
 433,  909,  910,  949,  948
 434,  910,  911,  950,  949
 435,  911,  912,  951,  950
 436,  912,  913,  952,  951
 437,  913,  914,  953,  952
 438,  914,  915,  954,  953
 439,  915,  916,  955,  954
 440,  916,   57,   58,  955
 441,  314,  917,  956,  313
 442,  917,  918,  957,  956
 443,  918,  919,  958,  957
 444,  919,  920,  959,  958
 445,  920,  921,  960,  959
 446,  921,  922,  961,  960
 447,  922,  923,  962,  961
 448,  923,  924,  963,  962
 449,  924,  925,  964,  963
 450,  925,  926,  965,  964
 451,  926,  927,  966,  965
 452,  927,  928,  967,  966
 453,  928,  929,  968,  967
 454,  929,  930,  969,  968
 455,  930,  931,  970,  969
 456,  931,  932,  971,  970
 457,  932,  933,  972,  971
 458,  933,  934,  973,  972
 459,  934,  935,  974,  973
 460,  935,  936,  975,  974
 461,  936,  937,  976,  975
 462,  937,  938,  977,  976
 463,  938,  939,  978,  977
 464,  939,  940,  979,  978
 465,  940,  941,  980,  979
 466,  941,  942,  981,  980
 467,  942,  943,  982,  981
 468,  943,  944,  983,  982
 469,  944,  945,  984,  983
 470,  945,  946,  985,  984
 471,  946,  947,  986,  985
 472,  947,  948,  987,  986
 473,  948,  949,  988,  987
 474,  949,  950,  989,  988
 475,  950,  951,  990,  989
 476,  951,  952,  991,  990
 477,  952,  953,  992,  991
 478,  953,  954,  993,  992
 479,  954,  955,  994,  993
 480,  955,   58,   59,  994
 481,  313,  956,  995,  312
 482,  956,  957,  996,  995
 483,  957,  958,  997,  996
 484,  958,  959,  998,  997
 485,  959,  960,  999,  998
 486,  960,  961, 1000,  999
 487,  961,  962, 1001, 1000
 488,  962,  963, 1002, 1001
 489,  963,  964, 1003, 1002
 490,  964,  965, 1004, 1003
 491,  965,  966, 1005, 1004
 492,  966,  967, 1006, 1005
 493,  967,  968, 1007, 1006
 494,  968,  969, 1008, 1007
 495,  969,  970, 1009, 1008
 496,  970,  971, 1010, 1009
 497,  971,  972, 1011, 1010
 498,  972,  973, 1012, 1011
 499,  973,  974, 1013, 1012
 500,  974,  975, 1014, 1013
 501,  975,  976, 1015, 1014
 502,  976,  977, 1016, 1015
 503,  977,  978, 1017, 1016
 504,  978,  979, 1018, 1017
 505,  979,  980, 1019, 1018
 506,  980,  981, 1020, 1019
 507,  981,  982, 1021, 1020
 508,  982,  983, 1022, 1021
 509,  983,  984, 1023, 1022
 510,  984,  985, 1024, 1023
 511,  985,  986, 1025, 1024
 512,  986,  987, 1026, 1025
 513,  987,  988, 1027, 1026
 514,  988,  989, 1028, 1027
 515,  989,  990, 1029, 1028
 516,  990,  991, 1030, 1029
 517,  991,  992, 1031, 1030
 518,  992,  993, 1032, 1031
 519,  993,  994, 1033, 1032
 520,  994,   59,   60, 1033
 521,  312,  995, 1034,  311
 522,  995,  996, 1035, 1034
 523,  996,  997, 1036, 1035
 524,  997,  998, 1037, 1036
 525,  998,  999, 1038, 1037
 526,  999, 1000, 1039, 1038
 527, 1000, 1001, 1040, 1039
 528, 1001, 1002, 1041, 1040
 529, 1002, 1003, 1042, 1041
 530, 1003, 1004, 1043, 1042
 531, 1004, 1005, 1044, 1043
 532, 1005, 1006, 1045, 1044
 533, 1006, 1007, 1046, 1045
 534, 1007, 1008, 1047, 1046
 535, 1008, 1009, 1048, 1047
 536, 1009, 1010, 1049, 1048
 537, 1010, 1011, 1050, 1049
 538, 1011, 1012, 1051, 1050
 539, 1012, 1013, 1052, 1051
 540, 1013, 1014, 1053, 1052
 541, 1014, 1015, 1054, 1053
 542, 1015, 1016, 1055, 1054
 543, 1016, 1017, 1056, 1055
 544, 1017, 1018, 1057, 1056
 545, 1018, 1019, 1058, 1057
 546, 1019, 1020, 1059, 1058
 547, 1020, 1021, 1060, 1059
 548, 1021, 1022, 1061, 1060
 549, 1022, 1023, 1062, 1061
 550, 1023, 1024, 1063, 1062
 551, 1024, 1025, 1064, 1063
 552, 1025, 1026, 1065, 1064
 553, 1026, 1027, 1066, 1065
 554, 1027, 1028, 1067, 1066
 555, 1028, 1029, 1068, 1067
 556, 1029, 1030, 1069, 1068
 557, 1030, 1031, 1070, 1069
 558, 1031, 1032, 1071, 1070
 559, 1032, 1033, 1072, 1071
 560, 1033,   60,   61, 1072
 561,  311, 1034, 1073,  310
 562, 1034, 1035, 1074, 1073
 563, 1035, 1036, 1075, 1074
 564, 1036, 1037, 1076, 1075
 565, 1037, 1038, 1077, 1076
 566, 1038, 1039, 1078, 1077
 567, 1039, 1040, 1079, 1078
 568, 1040, 1041, 1080, 1079
 569, 1041, 1042, 1081, 1080
 570, 1042, 1043, 1082, 1081
 571, 1043, 1044, 1083, 1082
 572, 1044, 1045, 1084, 1083
 573, 1045, 1046, 1085, 1084
 574, 1046, 1047, 1086, 1085
 575, 1047, 1048, 1087, 1086
 576, 1048, 1049, 1088, 1087
 577, 1049, 1050, 1089, 1088
 578, 1050, 1051, 1090, 1089
 579, 1051, 1052, 1091, 1090
 580, 1052, 1053, 1092, 1091
 581, 1053, 1054, 1093, 1092
 582, 1054, 1055, 1094, 1093
 583, 1055, 1056, 1095, 1094
 584, 1056, 1057, 1096, 1095
 585, 1057, 1058, 1097, 1096
 586, 1058, 1059, 1098, 1097
 587, 1059, 1060, 1099, 1098
 588, 1060, 1061, 1100, 1099
 589, 1061, 1062, 1101, 1100
 590, 1062, 1063, 1102, 1101
 591, 1063, 1064, 1103, 1102
 592, 1064, 1065, 1104, 1103
 593, 1065, 1066, 1105, 1104
 594, 1066, 1067, 1106, 1105
 595, 1067, 1068, 1107, 1106
 596, 1068, 1069, 1108, 1107
 597, 1069, 1070, 1109, 1108
 598, 1070, 1071, 1110, 1109
 599, 1071, 1072, 1111, 1110
 600, 1072,   61,   62, 1111
 601,  310, 1073, 1112,  309
 602, 1073, 1074, 1113, 1112
 603, 1074, 1075, 1114, 1113
 604, 1075, 1076, 1115, 1114
 605, 1076, 1077, 1116, 1115
 606, 1077, 1078, 1117, 1116
 607, 1078, 1079, 1118, 1117
 608, 1079, 1080, 1119, 1118
 609, 1080, 1081, 1120, 1119
 610, 1081, 1082, 1121, 1120
 611, 1082, 1083, 1122, 1121
 612, 1083, 1084, 1123, 1122
 613, 1084, 1085, 1124, 1123
 614, 1085, 1086, 1125, 1124
 615, 1086, 1087, 1126, 1125
 616, 1087, 1088, 1127, 1126
 617, 1088, 1089, 1128, 1127
 618, 1089, 1090, 1129, 1128
 619, 1090, 1091, 1130, 1129
 620, 1091, 1092, 1131, 1130
 621, 1092, 1093, 1132, 1131
 622, 1093, 1094, 1133, 1132
 623, 1094, 1095, 1134, 1133
 624, 1095, 1096, 1135, 1134
 625, 1096, 1097, 1136, 1135
 626, 1097, 1098, 1137, 1136
 627, 1098, 1099, 1138, 1137
 628, 1099, 1100, 1139, 1138
 629, 1100, 1101, 1140, 1139
 630, 1101, 1102, 1141, 1140
 631, 1102, 1103, 1142, 1141
 632, 1103, 1104, 1143, 1142
 633, 1104, 1105, 1144, 1143
 634, 1105, 1106, 1145, 1144
 635, 1106, 1107, 1146, 1145
 636, 1107, 1108, 1147, 1146
 637, 1108, 1109, 1148, 1147
 638, 1109, 1110, 1149, 1148
 639, 1110, 1111, 1150, 1149
 640, 1111,   62,   63, 1150
 641,  309, 1112, 1151,  308
 642, 1112, 1113, 1152, 1151
 643, 1113, 1114, 1153, 1152
 644, 1114, 1115, 1154, 1153
 645, 1115, 1116, 1155, 1154
 646, 1116, 1117, 1156, 1155
 647, 1117, 1118, 1157, 1156
 648, 1118, 1119, 1158, 1157
 649, 1119, 1120, 1159, 1158
 650, 1120, 1121, 1160, 1159
 651, 1121, 1122, 1161, 1160
 652, 1122, 1123, 1162, 1161
 653, 1123, 1124, 1163, 1162
 654, 1124, 1125, 1164, 1163
 655, 1125, 1126, 1165, 1164
 656, 1126, 1127, 1166, 1165
 657, 1127, 1128, 1167, 1166
 658, 1128, 1129, 1168, 1167
 659, 1129, 1130, 1169, 1168
 660, 1130, 1131, 1170, 1169
 661, 1131, 1132, 1171, 1170
 662, 1132, 1133, 1172, 1171
 663, 1133, 1134, 1173, 1172
 664, 1134, 1135, 1174, 1173
 665, 1135, 1136, 1175, 1174
 666, 1136, 1137, 1176, 1175
 667, 1137, 1138, 1177, 1176
 668, 1138, 1139, 1178, 1177
 669, 1139, 1140, 1179, 1178
 670, 1140, 1141, 1180, 1179
 671, 1141, 1142, 1181, 1180
 672, 1142, 1143, 1182, 1181
 673, 1143, 1144, 1183, 1182
 674, 1144, 1145, 1184, 1183
 675, 1145, 1146, 1185, 1184
 676, 1146, 1147, 1186, 1185
 677, 1147, 1148, 1187, 1186
 678, 1148, 1149, 1188, 1187
 679, 1149, 1150, 1189, 1188
 680, 1150,   63,   64, 1189
 681,  308, 1151, 1190,  307
 682, 1151, 1152, 1191, 1190
 683, 1152, 1153, 1192, 1191
 684, 1153, 1154, 1193, 1192
 685, 1154, 1155, 1194, 1193
 686, 1155, 1156, 1195, 1194
 687, 1156, 1157, 1196, 1195
 688, 1157, 1158, 1197, 1196
 689, 1158, 1159, 1198, 1197
 690, 1159, 1160, 1199, 1198
 691, 1160, 1161, 1200, 1199
 692, 1161, 1162, 1201, 1200
 693, 1162, 1163, 1202, 1201
 694, 1163, 1164, 1203, 1202
 695, 1164, 1165, 1204, 1203
 696, 1165, 1166, 1205, 1204
 697, 1166, 1167, 1206, 1205
 698, 1167, 1168, 1207, 1206
 699, 1168, 1169, 1208, 1207
 700, 1169, 1170, 1209, 1208
 701, 1170, 1171, 1210, 1209
 702, 1171, 1172, 1211, 1210
 703, 1172, 1173, 1212, 1211
 704, 1173, 1174, 1213, 1212
 705, 1174, 1175, 1214, 1213
 706, 1175, 1176, 1215, 1214
 707, 1176, 1177, 1216, 1215
 708, 1177, 1178, 1217, 1216
 709, 1178, 1179, 1218, 1217
 710, 1179, 1180, 1219, 1218
 711, 1180, 1181, 1220, 1219
 712, 1181, 1182, 1221, 1220
 713, 1182, 1183, 1222, 1221
 714, 1183, 1184, 1223, 1222
 715, 1184, 1185, 1224, 1223
 716, 1185, 1186, 1225, 1224
 717, 1186, 1187, 1226, 1225
 718, 1187, 1188, 1227, 1226
 719, 1188, 1189, 1228, 1227
 720, 1189,   64,   65, 1228
 721,  307, 1190, 1229,  306
 722, 1190, 1191, 1230, 1229
 723, 1191, 1192, 1231, 1230
 724, 1192, 1193, 1232, 1231
 725, 1193, 1194, 1233, 1232
 726, 1194, 1195, 1234, 1233
 727, 1195, 1196, 1235, 1234
 728, 1196, 1197, 1236, 1235
 729, 1197, 1198, 1237, 1236
 730, 1198, 1199, 1238, 1237
 731, 1199, 1200, 1239, 1238
 732, 1200, 1201, 1240, 1239
 733, 1201, 1202, 1241, 1240
 734, 1202, 1203, 1242, 1241
 735, 1203, 1204, 1243, 1242
 736, 1204, 1205, 1244, 1243
 737, 1205, 1206, 1245, 1244
 738, 1206, 1207, 1246, 1245
 739, 1207, 1208, 1247, 1246
 740, 1208, 1209, 1248, 1247
 741, 1209, 1210, 1249, 1248
 742, 1210, 1211, 1250, 1249
 743, 1211, 1212, 1251, 1250
 744, 1212, 1213, 1252, 1251
 745, 1213, 1214, 1253, 1252
 746, 1214, 1215, 1254, 1253
 747, 1215, 1216, 1255, 1254
 748, 1216, 1217, 1256, 1255
 749, 1217, 1218, 1257, 1256
 750, 1218, 1219, 1258, 1257
 751, 1219, 1220, 1259, 1258
 752, 1220, 1221, 1260, 1259
 753, 1221, 1222, 1261, 1260
 754, 1222, 1223, 1262, 1261
 755, 1223, 1224, 1263, 1262
 756, 1224, 1225, 1264, 1263
 757, 1225, 1226, 1265, 1264
 758, 1226, 1227, 1266, 1265
 759, 1227, 1228, 1267, 1266
 760, 1228,   65,   66, 1267
 761,  306, 1229, 1268,  305
 762, 1229, 1230, 1269, 1268
 763, 1230, 1231, 1270, 1269
 764, 1231, 1232, 1271, 1270
 765, 1232, 1233, 1272, 1271
 766, 1233, 1234, 1273, 1272
 767, 1234, 1235, 1274, 1273
 768, 1235, 1236, 1275, 1274
 769, 1236, 1237, 1276, 1275
 770, 1237, 1238, 1277, 1276
 771, 1238, 1239, 1278, 1277
 772, 1239, 1240, 1279, 1278
 773, 1240, 1241, 1280, 1279
 774, 1241, 1242, 1281, 1280
 775, 1242, 1243, 1282, 1281
 776, 1243, 1244, 1283, 1282
 777, 1244, 1245, 1284, 1283
 778, 1245, 1246, 1285, 1284
 779, 1246, 1247, 1286, 1285
 780, 1247, 1248, 1287, 1286
 781, 1248, 1249, 1288, 1287
 782, 1249, 1250, 1289, 1288
 783, 1250, 1251, 1290, 1289
 784, 1251, 1252, 1291, 1290
 785, 1252, 1253, 1292, 1291
 786, 1253, 1254, 1293, 1292
 787, 1254, 1255, 1294, 1293
 788, 1255, 1256, 1295, 1294
 789, 1256, 1257, 1296, 1295
 790, 1257, 1258, 1297, 1296
 791, 1258, 1259, 1298, 1297
 792, 1259, 1260, 1299, 1298
 793, 1260, 1261, 1300, 1299
 794, 1261, 1262, 1301, 1300
 795, 1262, 1263, 1302, 1301
 796, 1263, 1264, 1303, 1302
 797, 1264, 1265, 1304, 1303
 798, 1265, 1266, 1305, 1304
 799, 1266, 1267, 1306, 1305
 800, 1267,   66,   67, 1306
 801,  305, 1268, 1307,  304
 802, 1268, 1269, 1308, 1307
 803, 1269, 1270, 1309, 1308
 804, 1270, 1271, 1310, 1309
 805, 1271, 1272, 1311, 1310
 806, 1272, 1273, 1312, 1311
 807, 1273, 1274, 1313, 1312
 808, 1274, 1275, 1314, 1313
 809, 1275, 1276, 1315, 1314
 810, 1276, 1277, 1316, 1315
 811, 1277, 1278, 1317, 1316
 812, 1278, 1279, 1318, 1317
 813, 1279, 1280, 1319, 1318
 814, 1280, 1281, 1320, 1319
 815, 1281, 1282, 1321, 1320
 816, 1282, 1283, 1322, 1321
 817, 1283, 1284, 1323, 1322
 818, 1284, 1285, 1324, 1323
 819, 1285, 1286, 1325, 1324
 820, 1286, 1287, 1326, 1325
 821, 1287, 1288, 1327, 1326
 822, 1288, 1289, 1328, 1327
 823, 1289, 1290, 1329, 1328
 824, 1290, 1291, 1330, 1329
 825, 1291, 1292, 1331, 1330
 826, 1292, 1293, 1332, 1331
 827, 1293, 1294, 1333, 1332
 828, 1294, 1295, 1334, 1333
 829, 1295, 1296, 1335, 1334
 830, 1296, 1297, 1336, 1335
 831, 1297, 1298, 1337, 1336
 832, 1298, 1299, 1338, 1337
 833, 1299, 1300, 1339, 1338
 834, 1300, 1301, 1340, 1339
 835, 1301, 1302, 1341, 1340
 836, 1302, 1303, 1342, 1341
 837, 1303, 1304, 1343, 1342
 838, 1304, 1305, 1344, 1343
 839, 1305, 1306, 1345, 1344
 840, 1306,   67,   68, 1345
 841,  304, 1307, 1346,  303
 842, 1307, 1308, 1347, 1346
 843, 1308, 1309, 1348, 1347
 844, 1309, 1310, 1349, 1348
 845, 1310, 1311, 1350, 1349
 846, 1311, 1312, 1351, 1350
 847, 1312, 1313, 1352, 1351
 848, 1313, 1314, 1353, 1352
 849, 1314, 1315, 1354, 1353
 850, 1315, 1316, 1355, 1354
 851, 1316, 1317, 1356, 1355
 852, 1317, 1318, 1357, 1356
 853, 1318, 1319, 1358, 1357
 854, 1319, 1320, 1359, 1358
 855, 1320, 1321, 1360, 1359
 856, 1321, 1322, 1361, 1360
 857, 1322, 1323, 1362, 1361
 858, 1323, 1324, 1363, 1362
 859, 1324, 1325, 1364, 1363
 860, 1325, 1326, 1365, 1364
 861, 1326, 1327, 1366, 1365
 862, 1327, 1328, 1367, 1366
 863, 1328, 1329, 1368, 1367
 864, 1329, 1330, 1369, 1368
 865, 1330, 1331, 1370, 1369
 866, 1331, 1332, 1371, 1370
 867, 1332, 1333, 1372, 1371
 868, 1333, 1334, 1373, 1372
 869, 1334, 1335, 1374, 1373
 870, 1335, 1336, 1375, 1374
 871, 1336, 1337, 1376, 1375
 872, 1337, 1338, 1377, 1376
 873, 1338, 1339, 1378, 1377
 874, 1339, 1340, 1379, 1378
 875, 1340, 1341, 1380, 1379
 876, 1341, 1342, 1381, 1380
 877, 1342, 1343, 1382, 1381
 878, 1343, 1344, 1383, 1382
 879, 1344, 1345, 1384, 1383
 880, 1345,   68,   69, 1384
 881,  303, 1346, 1385,  302
 882, 1346, 1347, 1386, 1385
 883, 1347, 1348, 1387, 1386
 884, 1348, 1349, 1388, 1387
 885, 1349, 1350, 1389, 1388
 886, 1350, 1351, 1390, 1389
 887, 1351, 1352, 1391, 1390
 888, 1352, 1353, 1392, 1391
 889, 1353, 1354, 1393, 1392
 890, 1354, 1355, 1394, 1393
 891, 1355, 1356, 1395, 1394
 892, 1356, 1357, 1396, 1395
 893, 1357, 1358, 1397, 1396
 894, 1358, 1359, 1398, 1397
 895, 1359, 1360, 1399, 1398
 896, 1360, 1361, 1400, 1399
 897, 1361, 1362, 1401, 1400
 898, 1362, 1363, 1402, 1401
 899, 1363, 1364, 1403, 1402
 900, 1364, 1365, 1404, 1403
 901, 1365, 1366, 1405, 1404
 902, 1366, 1367, 1406, 1405
 903, 1367, 1368, 1407, 1406
 904, 1368, 1369, 1408, 1407
 905, 1369, 1370, 1409, 1408
 906, 1370, 1371, 1410, 1409
 907, 1371, 1372, 1411, 1410
 908, 1372, 1373, 1412, 1411
 909, 1373, 1374, 1413, 1412
 910, 1374, 1375, 1414, 1413
 911, 1375, 1376, 1415, 1414
 912, 1376, 1377, 1416, 1415
 913, 1377, 1378, 1417, 1416
 914, 1378, 1379, 1418, 1417
 915, 1379, 1380, 1419, 1418
 916, 1380, 1381, 1420, 1419
 917, 1381, 1382, 1421, 1420
 918, 1382, 1383, 1422, 1421
 919, 1383, 1384, 1423, 1422
 920, 1384,   69,   70, 1423
 921,  302, 1385, 1424,  301
 922, 1385, 1386, 1425, 1424
 923, 1386, 1387, 1426, 1425
 924, 1387, 1388, 1427, 1426
 925, 1388, 1389, 1428, 1427
 926, 1389, 1390, 1429, 1428
 927, 1390, 1391, 1430, 1429
 928, 1391, 1392, 1431, 1430
 929, 1392, 1393, 1432, 1431
 930, 1393, 1394, 1433, 1432
 931, 1394, 1395, 1434, 1433
 932, 1395, 1396, 1435, 1434
 933, 1396, 1397, 1436, 1435
 934, 1397, 1398, 1437, 1436
 935, 1398, 1399, 1438, 1437
 936, 1399, 1400, 1439, 1438
 937, 1400, 1401, 1440, 1439
 938, 1401, 1402, 1441, 1440
 939, 1402, 1403, 1442, 1441
 940, 1403, 1404, 1443, 1442
 941, 1404, 1405, 1444, 1443
 942, 1405, 1406, 1445, 1444
 943, 1406, 1407, 1446, 1445
 944, 1407, 1408, 1447, 1446
 945, 1408, 1409, 1448, 1447
 946, 1409, 1410, 1449, 1448
 947, 1410, 1411, 1450, 1449
 948, 1411, 1412, 1451, 1450
 949, 1412, 1413, 1452, 1451
 950, 1413, 1414, 1453, 1452
 951, 1414, 1415, 1454, 1453
 952, 1415, 1416, 1455, 1454
 953, 1416, 1417, 1456, 1455
 954, 1417, 1418, 1457, 1456
 955, 1418, 1419, 1458, 1457
 956, 1419, 1420, 1459, 1458
 957, 1420, 1421, 1460, 1459
 958, 1421, 1422, 1461, 1460
 959, 1422, 1423, 1462, 1461
 960, 1423,   70,   71, 1462
 961,  301, 1424, 1463,  300
 962, 1424, 1425, 1464, 1463
 963, 1425, 1426, 1465, 1464
 964, 1426, 1427, 1466, 1465
 965, 1427, 1428, 1467, 1466
 966, 1428, 1429, 1468, 1467
 967, 1429, 1430, 1469, 1468
 968, 1430, 1431, 1470, 1469
 969, 1431, 1432, 1471, 1470
 970, 1432, 1433, 1472, 1471
 971, 1433, 1434, 1473, 1472
 972, 1434, 1435, 1474, 1473
 973, 1435, 1436, 1475, 1474
 974, 1436, 1437, 1476, 1475
 975, 1437, 1438, 1477, 1476
 976, 1438, 1439, 1478, 1477
 977, 1439, 1440, 1479, 1478
 978, 1440, 1441, 1480, 1479
 979, 1441, 1442, 1481, 1480
 980, 1442, 1443, 1482, 1481
 981, 1443, 1444, 1483, 1482
 982, 1444, 1445, 1484, 1483
 983, 1445, 1446, 1485, 1484
 984, 1446, 1447, 1486, 1485
 985, 1447, 1448, 1487, 1486
 986, 1448, 1449, 1488, 1487
 987, 1449, 1450, 1489, 1488
 988, 1450, 1451, 1490, 1489
 989, 1451, 1452, 1491, 1490
 990, 1452, 1453, 1492, 1491
 991, 1453, 1454, 1493, 1492
 992, 1454, 1455, 1494, 1493
 993, 1455, 1456, 1495, 1494
 994, 1456, 1457, 1496, 1495
 995, 1457, 1458, 1497, 1496
 996, 1458, 1459, 1498, 1497
 997, 1459, 1460, 1499, 1498
 998, 1460, 1461, 1500, 1499
 999, 1461, 1462, 1501, 1500
1000, 1462,   71,   72, 1501
1001,  300, 1463, 1502,  299
1002, 1463, 1464, 1503, 1502
1003, 1464, 1465, 1504, 1503
1004, 1465, 1466, 1505, 1504
1005, 1466, 1467, 1506, 1505
1006, 1467, 1468, 1507, 1506
1007, 1468, 1469, 1508, 1507
1008, 1469, 1470, 1509, 1508
1009, 1470, 1471, 1510, 1509
1010, 1471, 1472, 1511, 1510
1011, 1472, 1473, 1512, 1511
1012, 1473, 1474, 1513, 1512
1013, 1474, 1475, 1514, 1513
1014, 1475, 1476, 1515, 1514
1015, 1476, 1477, 1516, 1515
1016, 1477, 1478, 1517, 1516
1017, 1478, 1479, 1518, 1517
1018, 1479, 1480, 1519, 1518
1019, 1480, 1481, 1520, 1519
1020, 1481, 1482, 1521, 1520
1021, 1482, 1483, 1522, 1521
1022, 1483, 1484, 1523, 1522
1023, 1484, 1485, 1524, 1523
1024, 1485, 1486, 1525, 1524
1025, 1486, 1487, 1526, 1525
1026, 1487, 1488, 1527, 1526
1027, 1488, 1489, 1528, 1527
1028, 1489, 1490, 1529, 1528
1029, 1490, 1491, 1530, 1529
1030, 1491, 1492, 1531, 1530
1031, 1492, 1493, 1532, 1531
1032, 1493, 1494, 1533, 1532
1033, 1494, 1495, 1534, 1533
1034, 1495, 1496, 1535, 1534
1035, 1496, 1497, 1536, 1535
1036, 1497, 1498, 1537, 1536
1037, 1498, 1499, 1538, 1537
1038, 1499, 1500, 1539, 1538
1039, 1500, 1501, 1540, 1539
1040, 1501,   72,   73, 1540
1041,  299, 1502, 1541,  298
1042, 1502, 1503, 1542, 1541
1043, 1503, 1504, 1543, 1542
1044, 1504, 1505, 1544, 1543
1045, 1505, 1506, 1545, 1544
1046, 1506, 1507, 1546, 1545
1047, 1507, 1508, 1547, 1546
1048, 1508, 1509, 1548, 1547
1049, 1509, 1510, 1549, 1548
1050, 1510, 1511, 1550, 1549
1051, 1511, 1512, 1551, 1550
1052, 1512, 1513, 1552, 1551
1053, 1513, 1514, 1553, 1552
1054, 1514, 1515, 1554, 1553
1055, 1515, 1516, 1555, 1554
1056, 1516, 1517, 1556, 1555
1057, 1517, 1518, 1557, 1556
1058, 1518, 1519, 1558, 1557
1059, 1519, 1520, 1559, 1558
1060, 1520, 1521, 1560, 1559
1061, 1521, 1522, 1561, 1560
1062, 1522, 1523, 1562, 1561
1063, 1523, 1524, 1563, 1562
1064, 1524, 1525, 1564, 1563
1065, 1525, 1526, 1565, 1564
1066, 1526, 1527, 1566, 1565
1067, 1527, 1528, 1567, 1566
1068, 1528, 1529, 1568, 1567
1069, 1529, 1530, 1569, 1568
1070, 1530, 1531, 1570, 1569
1071, 1531, 1532, 1571, 1570
1072, 1532, 1533, 1572, 1571
1073, 1533, 1534, 1573, 1572
1074, 1534, 1535, 1574, 1573
1075, 1535, 1536, 1575, 1574
1076, 1536, 1537, 1576, 1575
1077, 1537, 1538, 1577, 1576
1078, 1538, 1539, 1578, 1577
1079, 1539, 1540, 1579, 1578
1080, 1540,   73,   74, 1579
1081,  298, 1541, 1580,  297
1082, 1541, 1542, 1581, 1580
1083, 1542, 1543, 1582, 1581
1084, 1543, 1544, 1583, 1582
1085, 1544, 1545, 1584, 1583
1086, 1545, 1546, 1585, 1584
1087, 1546, 1547, 1586, 1585
1088, 1547, 1548, 1587, 1586
1089, 1548, 1549, 1588, 1587
1090, 1549, 1550, 1589, 1588
1091, 1550, 1551, 1590, 1589
1092, 1551, 1552, 1591, 1590
1093, 1552, 1553, 1592, 1591
1094, 1553, 1554, 1593, 1592
1095, 1554, 1555, 1594, 1593
1096, 1555, 1556, 1595, 1594
1097, 1556, 1557, 1596, 1595
1098, 1557, 1558, 1597, 1596
1099, 1558, 1559, 1598, 1597
1100, 1559, 1560, 1599, 1598
1101, 1560, 1561, 1600, 1599
1102, 1561, 1562, 1601, 1600
1103, 1562, 1563, 1602, 1601
1104, 1563, 1564, 1603, 1602
1105, 1564, 1565, 1604, 1603
1106, 1565, 1566, 1605, 1604
1107, 1566, 1567, 1606, 1605
1108, 1567, 1568, 1607, 1606
1109, 1568, 1569, 1608, 1607
1110, 1569, 1570, 1609, 1608
1111, 1570, 1571, 1610, 1609
1112, 1571, 1572, 1611, 1610
1113, 1572, 1573, 1612, 1611
1114, 1573, 1574, 1613, 1612
1115, 1574, 1575, 1614, 1613
1116, 1575, 1576, 1615, 1614
1117, 1576, 1577, 1616, 1615
1118, 1577, 1578, 1617, 1616
1119, 1578, 1579, 1618, 1617
1120, 1579,   74,   75, 1618
1121,  297, 1580, 1619,  296
1122, 1580, 1581, 1620, 1619
1123, 1581, 1582, 1621, 1620
1124, 1582, 1583, 1622, 1621
1125, 1583, 1584, 1623, 1622
1126, 1584, 1585, 1624, 1623
1127, 1585, 1586, 1625, 1624
1128, 1586, 1587, 1626, 1625
1129, 1587, 1588, 1627, 1626
1130, 1588, 1589, 1628, 1627
1131, 1589, 1590, 1629, 1628
1132, 1590, 1591, 1630, 1629
1133, 1591, 1592, 1631, 1630
1134, 1592, 1593, 1632, 1631
1135, 1593, 1594, 1633, 1632
1136, 1594, 1595, 1634, 1633
1137, 1595, 1596, 1635, 1634
1138, 1596, 1597, 1636, 1635
1139, 1597, 1598, 1637, 1636
1140, 1598, 1599, 1638, 1637
1141, 1599, 1600, 1639, 1638
1142, 1600, 1601, 1640, 1639
1143, 1601, 1602, 1641, 1640
1144, 1602, 1603, 1642, 1641
1145, 1603, 1604, 1643, 1642
1146, 1604, 1605, 1644, 1643
1147, 1605, 1606, 1645, 1644
1148, 1606, 1607, 1646, 1645
1149, 1607, 1608, 1647, 1646
1150, 1608, 1609, 1648, 1647
1151, 1609, 1610, 1649, 1648
1152, 1610, 1611, 1650, 1649
1153, 1611, 1612, 1651, 1650
1154, 1612, 1613, 1652, 1651
1155, 1613, 1614, 1653, 1652
1156, 1614, 1615, 1654, 1653
1157, 1615, 1616, 1655, 1654
1158, 1616, 1617, 1656, 1655
1159, 1617, 1618, 1657, 1656
1160, 1618,   75,   76, 1657
1161,  296, 1619, 1658,  295
1162, 1619, 1620, 1659, 1658
1163, 1620, 1621, 1660, 1659
1164, 1621, 1622, 1661, 1660
1165, 1622, 1623, 1662, 1661
1166, 1623, 1624, 1663, 1662
1167, 1624, 1625, 1664, 1663
1168, 1625, 1626, 1665, 1664
1169, 1626, 1627, 1666, 1665
1170, 1627, 1628, 1667, 1666
1171, 1628, 1629, 1668, 1667
1172, 1629, 1630, 1669, 1668
1173, 1630, 1631, 1670, 1669
1174, 1631, 1632, 1671, 1670
1175, 1632, 1633, 1672, 1671
1176, 1633, 1634, 1673, 1672
1177, 1634, 1635, 1674, 1673
1178, 1635, 1636, 1675, 1674
1179, 1636, 1637, 1676, 1675
1180, 1637, 1638, 1677, 1676
1181, 1638, 1639, 1678, 1677
1182, 1639, 1640, 1679, 1678
1183, 1640, 1641, 1680, 1679
1184, 1641, 1642, 1681, 1680
1185, 1642, 1643, 1682, 1681
1186, 1643, 1644, 1683, 1682
1187, 1644, 1645, 1684, 1683
1188, 1645, 1646, 1685, 1684
1189, 1646, 1647, 1686, 1685
1190, 1647, 1648, 1687, 1686
1191, 1648, 1649, 1688, 1687
1192, 1649, 1650, 1689, 1688
1193, 1650, 1651, 1690, 1689
1194, 1651, 1652, 1691, 1690
1195, 1652, 1653, 1692, 1691
1196, 1653, 1654, 1693, 1692
1197, 1654, 1655, 1694, 1693
1198, 1655, 1656, 1695, 1694
1199, 1656, 1657, 1696, 1695
1200, 1657,   76,   77, 1696
1201,  295, 1658, 1697,  294
1202, 1658, 1659, 1698, 1697
1203, 1659, 1660, 1699, 1698
1204, 1660, 1661, 1700, 1699
1205, 1661, 1662, 1701, 1700
1206, 1662, 1663, 1702, 1701
1207, 1663, 1664, 1703, 1702
1208, 1664, 1665, 1704, 1703
1209, 1665, 1666, 1705, 1704
1210, 1666, 1667, 1706, 1705
1211, 1667, 1668, 1707, 1706
1212, 1668, 1669, 1708, 1707
1213, 1669, 1670, 1709, 1708
1214, 1670, 1671, 1710, 1709
1215, 1671, 1672, 1711, 1710
1216, 1672, 1673, 1712, 1711
1217, 1673, 1674, 1713, 1712
1218, 1674, 1675, 1714, 1713
1219, 1675, 1676, 1715, 1714
1220, 1676, 1677, 1716, 1715
1221, 1677, 1678, 1717, 1716
1222, 1678, 1679, 1718, 1717
1223, 1679, 1680, 1719, 1718
1224, 1680, 1681, 1720, 1719
1225, 1681, 1682, 1721, 1720
1226, 1682, 1683, 1722, 1721
1227, 1683, 1684, 1723, 1722
1228, 1684, 1685, 1724, 1723
1229, 1685, 1686, 1725, 1724
1230, 1686, 1687, 1726, 1725
1231, 1687, 1688, 1727, 1726
1232, 1688, 1689, 1728, 1727
1233, 1689, 1690, 1729, 1728
1234, 1690, 1691, 1730, 1729
1235, 1691, 1692, 1731, 1730
1236, 1692, 1693, 1732, 1731
1237, 1693, 1694, 1733, 1732
1238, 1694, 1695, 1734, 1733
1239, 1695, 1696, 1735, 1734
1240, 1696,   77,   78, 1735
1241,  294, 1697, 1736,  293
1242, 1697, 1698, 1737, 1736
1243, 1698, 1699, 1738, 1737
1244, 1699, 1700, 1739, 1738
1245, 1700, 1701, 1740, 1739
1246, 1701, 1702, 1741, 1740
1247, 1702, 1703, 1742, 1741
1248, 1703, 1704, 1743, 1742
1249, 1704, 1705, 1744, 1743
1250, 1705, 1706, 1745, 1744
1251, 1706, 1707, 1746, 1745
1252, 1707, 1708, 1747, 1746
1253, 1708, 1709, 1748, 1747
1254, 1709, 1710, 1749, 1748
1255, 1710, 1711, 1750, 1749
1256, 1711, 1712, 1751, 1750
1257, 1712, 1713, 1752, 1751
1258, 1713, 1714, 1753, 1752
1259, 1714, 1715, 1754, 1753
1260, 1715, 1716, 1755, 1754
1261, 1716, 1717, 1756, 1755
1262, 1717, 1718, 1757, 1756
1263, 1718, 1719, 1758, 1757
1264, 1719, 1720, 1759, 1758
1265, 1720, 1721, 1760, 1759
1266, 1721, 1722, 1761, 1760
1267, 1722, 1723, 1762, 1761
1268, 1723, 1724, 1763, 1762
1269, 1724, 1725, 1764, 1763
1270, 1725, 1726, 1765, 1764
1271, 1726, 1727, 1766, 1765
1272, 1727, 1728, 1767, 1766
1273, 1728, 1729, 1768, 1767
1274, 1729, 1730, 1769, 1768
1275, 1730, 1731, 1770, 1769
1276, 1731, 1732, 1771, 1770
1277, 1732, 1733, 1772, 1771
1278, 1733, 1734, 1773, 1772
1279, 1734, 1735, 1774, 1773
1280, 1735,   78,   79, 1774
1281,  293, 1736, 1775,  292
1282, 1736, 1737, 1776, 1775
1283, 1737, 1738, 1777, 1776
1284, 1738, 1739, 1778, 1777
1285, 1739, 1740, 1779, 1778
1286, 1740, 1741, 1780, 1779
1287, 1741, 1742, 1781, 1780
1288, 1742, 1743, 1782, 1781
1289, 1743, 1744, 1783, 1782
1290, 1744, 1745, 1784, 1783
1291, 1745, 1746, 1785, 1784
1292, 1746, 1747, 1786, 1785
1293, 1747, 1748, 1787, 1786
1294, 1748, 1749, 1788, 1787
1295, 1749, 1750, 1789, 1788
1296, 1750, 1751, 1790, 1789
1297, 1751, 1752, 1791, 1790
1298, 1752, 1753, 1792, 1791
1299, 1753, 1754, 1793, 1792
1300, 1754, 1755, 1794, 1793
1301, 1755, 1756, 1795, 1794
1302, 1756, 1757, 1796, 1795
1303, 1757, 1758, 1797, 1796
1304, 1758, 1759, 1798, 1797
1305, 1759, 1760, 1799, 1798
1306, 1760, 1761, 1800, 1799
1307, 1761, 1762, 1801, 1800
1308, 1762, 1763, 1802, 1801
1309, 1763, 1764, 1803, 1802
1310, 1764, 1765, 1804, 1803
1311, 1765, 1766, 1805, 1804
1312, 1766, 1767, 1806, 1805
1313, 1767, 1768, 1807, 1806
1314, 1768, 1769, 1808, 1807
1315, 1769, 1770, 1809, 1808
1316, 1770, 1771, 1810, 1809
1317, 1771, 1772, 1811, 1810
1318, 1772, 1773, 1812, 1811
1319, 1773, 1774, 1813, 1812
1320, 1774,   79,   80, 1813
1321,  292, 1775, 1814,  291
1322, 1775, 1776, 1815, 1814
1323, 1776, 1777, 1816, 1815
1324, 1777, 1778, 1817, 1816
1325, 1778, 1779, 1818, 1817
1326, 1779, 1780, 1819, 1818
1327, 1780, 1781, 1820, 1819
1328, 1781, 1782, 1821, 1820
1329, 1782, 1783, 1822, 1821
1330, 1783, 1784, 1823, 1822
1331, 1784, 1785, 1824, 1823
1332, 1785, 1786, 1825, 1824
1333, 1786, 1787, 1826, 1825
1334, 1787, 1788, 1827, 1826
1335, 1788, 1789, 1828, 1827
1336, 1789, 1790, 1829, 1828
1337, 1790, 1791, 1830, 1829
1338, 1791, 1792, 1831, 1830
1339, 1792, 1793, 1832, 1831
1340, 1793, 1794, 1833, 1832
1341, 1794, 1795, 1834, 1833
1342, 1795, 1796, 1835, 1834
1343, 1796, 1797, 1836, 1835
1344, 1797, 1798, 1837, 1836
1345, 1798, 1799, 1838, 1837
1346, 1799, 1800, 1839, 1838
1347, 1800, 1801, 1840, 1839
1348, 1801, 1802, 1841, 1840
1349, 1802, 1803, 1842, 1841
1350, 1803, 1804, 1843, 1842
1351, 1804, 1805, 1844, 1843
1352, 1805, 1806, 1845, 1844
1353, 1806, 1807, 1846, 1845
1354, 1807, 1808, 1847, 1846
1355, 1808, 1809, 1848, 1847
1356, 1809, 1810, 1849, 1848
1357, 1810, 1811, 1850, 1849
1358, 1811, 1812, 1851, 1850
1359, 1812, 1813, 1852, 1851
1360, 1813,   80,   81, 1852
1361,  291, 1814, 1853,  290
1362, 1814, 1815, 1854, 1853
1363, 1815, 1816, 1855, 1854
1364, 1816, 1817, 1856, 1855
1365, 1817, 1818, 1857, 1856
1366, 1818, 1819, 1858, 1857
1367, 1819, 1820, 1859, 1858
1368, 1820, 1821, 1860, 1859
1369, 1821, 1822, 1861, 1860
1370, 1822, 1823, 1862, 1861
1371, 1823, 1824, 1863, 1862
1372, 1824, 1825, 1864, 1863
1373, 1825, 1826, 1865, 1864
1374, 1826, 1827, 1866, 1865
1375, 1827, 1828, 1867, 1866
1376, 1828, 1829, 1868, 1867
1377, 1829, 1830, 1869, 1868
1378, 1830, 1831, 1870, 1869
1379, 1831, 1832, 1871, 1870
1380, 1832, 1833, 1872, 1871
1381, 1833, 1834, 1873, 1872
1382, 1834, 1835, 1874, 1873
1383, 1835, 1836, 1875, 1874
1384, 1836, 1837, 1876, 1875
1385, 1837, 1838, 1877, 1876
1386, 1838, 1839, 1878, 1877
1387, 1839, 1840, 1879, 1878
1388, 1840, 1841, 1880, 1879
1389, 1841, 1842, 1881, 1880
1390, 1842, 1843, 1882, 1881
1391, 1843, 1844, 1883, 1882
1392, 1844, 1845, 1884, 1883
1393, 1845, 1846, 1885, 1884
1394, 1846, 1847, 1886, 1885
1395, 1847, 1848, 1887, 1886
1396, 1848, 1849, 1888, 1887
1397, 1849, 1850, 1889, 1888
1398, 1850, 1851, 1890, 1889
1399, 1851, 1852, 1891, 1890
1400, 1852,   81,   82, 1891
1401,  290, 1853, 1892,  289
1402, 1853, 1854, 1893, 1892
1403, 1854, 1855, 1894, 1893
1404, 1855, 1856, 1895, 1894
1405, 1856, 1857, 1896, 1895
1406, 1857, 1858, 1897, 1896
1407, 1858, 1859, 1898, 1897
1408, 1859, 1860, 1899, 1898
1409, 1860, 1861, 1900, 1899
1410, 1861, 1862, 1901, 1900
1411, 1862, 1863, 1902, 1901
1412, 1863, 1864, 1903, 1902
1413, 1864, 1865, 1904, 1903
1414, 1865, 1866, 1905, 1904
1415, 1866, 1867, 1906, 1905
1416, 1867, 1868, 1907, 1906
1417, 1868, 1869, 1908, 1907
1418, 1869, 1870, 1909, 1908
1419, 1870, 1871, 1910, 1909
1420, 1871, 1872, 1911, 1910
1421, 1872, 1873, 1912, 1911
1422, 1873, 1874, 1913, 1912
1423, 1874, 1875, 1914, 1913
1424, 1875, 1876, 1915, 1914
1425, 1876, 1877, 1916, 1915
1426, 1877, 1878, 1917, 1916
1427, 1878, 1879, 1918, 1917
1428, 1879, 1880, 1919, 1918
1429, 1880, 1881, 1920, 1919
1430, 1881, 1882, 1921, 1920
1431, 1882, 1883, 1922, 1921
1432, 1883, 1884, 1923, 1922
1433, 1884, 1885, 1924, 1923
1434, 1885, 1886, 1925, 1924
1435, 1886, 1887, 1926, 1925
1436, 1887, 1888, 1927, 1926
1437, 1888, 1889, 1928, 1927
1438, 1889, 1890, 1929, 1928
1439, 1890, 1891, 1930, 1929
1440, 1891,   82,   83, 1930
1441,  289, 1892, 1931,  288
1442, 1892, 1893, 1932, 1931
1443, 1893, 1894, 1933, 1932
1444, 1894, 1895, 1934, 1933
1445, 1895, 1896, 1935, 1934
1446, 1896, 1897, 1936, 1935
1447, 1897, 1898, 1937, 1936
1448, 1898, 1899, 1938, 1937
1449, 1899, 1900, 1939, 1938
1450, 1900, 1901, 1940, 1939
1451, 1901, 1902, 1941, 1940
1452, 1902, 1903, 1942, 1941
1453, 1903, 1904, 1943, 1942
1454, 1904, 1905, 1944, 1943
1455, 1905, 1906, 1945, 1944
1456, 1906, 1907, 1946, 1945
1457, 1907, 1908, 1947, 1946
1458, 1908, 1909, 1948, 1947
1459, 1909, 1910, 1949, 1948
1460, 1910, 1911, 1950, 1949
1461, 1911, 1912, 1951, 1950
1462, 1912, 1913, 1952, 1951
1463, 1913, 1914, 1953, 1952
1464, 1914, 1915, 1954, 1953
1465, 1915, 1916, 1955, 1954
1466, 1916, 1917, 1956, 1955
1467, 1917, 1918, 1957, 1956
1468, 1918, 1919, 1958, 1957
1469, 1919, 1920, 1959, 1958
1470, 1920, 1921, 1960, 1959
1471, 1921, 1922, 1961, 1960
1472, 1922, 1923, 1962, 1961
1473, 1923, 1924, 1963, 1962
1474, 1924, 1925, 1964, 1963
1475, 1925, 1926, 1965, 1964
1476, 1926, 1927, 1966, 1965
1477, 1927, 1928, 1967, 1966
1478, 1928, 1929, 1968, 1967
1479, 1929, 1930, 1969, 1968
1480, 1930,   83,   84, 1969
1481,  288, 1931, 1970,  287
1482, 1931, 1932, 1971, 1970
1483, 1932, 1933, 1972, 1971
1484, 1933, 1934, 1973, 1972
1485, 1934, 1935, 1974, 1973
1486, 1935, 1936, 1975, 1974
1487, 1936, 1937, 1976, 1975
1488, 1937, 1938, 1977, 1976
1489, 1938, 1939, 1978, 1977
1490, 1939, 1940, 1979, 1978
1491, 1940, 1941, 1980, 1979
1492, 1941, 1942, 1981, 1980
1493, 1942, 1943, 1982, 1981
1494, 1943, 1944, 1983, 1982
1495, 1944, 1945, 1984, 1983
1496, 1945, 1946, 1985, 1984
1497, 1946, 1947, 1986, 1985
1498, 1947, 1948, 1987, 1986
1499, 1948, 1949, 1988, 1987
1500, 1949, 1950, 1989, 1988
1501, 1950, 1951, 1990, 1989
1502, 1951, 1952, 1991, 1990
1503, 1952, 1953, 1992, 1991
1504, 1953, 1954, 1993, 1992
1505, 1954, 1955, 1994, 1993
1506, 1955, 1956, 1995, 1994
1507, 1956, 1957, 1996, 1995
1508, 1957, 1958, 1997, 1996
1509, 1958, 1959, 1998, 1997
1510, 1959, 1960, 1999, 1998
1511, 1960, 1961, 2000, 1999
1512, 1961, 1962, 2001, 2000
1513, 1962, 1963, 2002, 2001
1514, 1963, 1964, 2003, 2002
1515, 1964, 1965, 2004, 2003
1516, 1965, 1966, 2005, 2004
1517, 1966, 1967, 2006, 2005
1518, 1967, 1968, 2007, 2006
1519, 1968, 1969, 2008, 2007
1520, 1969,   84,   85, 2008
1521,  287, 1970, 2009,  286
1522, 1970, 1971, 2010, 2009
1523, 1971, 1972, 2011, 2010
1524, 1972, 1973, 2012, 2011
1525, 1973, 1974, 2013, 2012
1526, 1974, 1975, 2014, 2013
1527, 1975, 1976, 2015, 2014
1528, 1976, 1977, 2016, 2015
1529, 1977, 1978, 2017, 2016
1530, 1978, 1979, 2018, 2017
1531, 1979, 1980, 2019, 2018
1532, 1980, 1981, 2020, 2019
1533, 1981, 1982, 2021, 2020
1534, 1982, 1983, 2022, 2021
1535, 1983, 1984, 2023, 2022
1536, 1984, 1985, 2024, 2023
1537, 1985, 1986, 2025, 2024
1538, 1986, 1987, 2026, 2025
1539, 1987, 1988, 2027, 2026
1540, 1988, 1989, 2028, 2027
1541, 1989, 1990, 2029, 2028
1542, 1990, 1991, 2030, 2029
1543, 1991, 1992, 2031, 2030
1544, 1992, 1993, 2032, 2031
1545, 1993, 1994, 2033, 2032
1546, 1994, 1995, 2034, 2033
1547, 1995, 1996, 2035, 2034
1548, 1996, 1997, 2036, 2035
1549, 1997, 1998, 2037, 2036
1550, 1998, 1999, 2038, 2037
1551, 1999, 2000, 2039, 2038
1552, 2000, 2001, 2040, 2039
1553, 2001, 2002, 2041, 2040
1554, 2002, 2003, 2042, 2041
1555, 2003, 2004, 2043, 2042
1556, 2004, 2005, 2044, 2043
1557, 2005, 2006, 2045, 2044
1558, 2006, 2007, 2046, 2045
1559, 2007, 2008, 2047, 2046
1560, 2008,   85,   86, 2047
1561,  286, 2009, 2048,  285
1562, 2009, 2010, 2049, 2048
1563, 2010, 2011, 2050, 2049
1564, 2011, 2012, 2051, 2050
1565, 2012, 2013, 2052, 2051
1566, 2013, 2014, 2053, 2052
1567, 2014, 2015, 2054, 2053
1568, 2015, 2016, 2055, 2054
1569, 2016, 2017, 2056, 2055
1570, 2017, 2018, 2057, 2056
1571, 2018, 2019, 2058, 2057
1572, 2019, 2020, 2059, 2058
1573, 2020, 2021, 2060, 2059
1574, 2021, 2022, 2061, 2060
1575, 2022, 2023, 2062, 2061
1576, 2023, 2024, 2063, 2062
1577, 2024, 2025, 2064, 2063
1578, 2025, 2026, 2065, 2064
1579, 2026, 2027, 2066, 2065
1580, 2027, 2028, 2067, 2066
1581, 2028, 2029, 2068, 2067
1582, 2029, 2030, 2069, 2068
1583, 2030, 2031, 2070, 2069
1584, 2031, 2032, 2071, 2070
1585, 2032, 2033, 2072, 2071
1586, 2033, 2034, 2073, 2072
1587, 2034, 2035, 2074, 2073
1588, 2035, 2036, 2075, 2074
1589, 2036, 2037, 2076, 2075
1590, 2037, 2038, 2077, 2076
1591, 2038, 2039, 2078, 2077
1592, 2039, 2040, 2079, 2078
1593, 2040, 2041, 2080, 2079
1594, 2041, 2042, 2081, 2080
1595, 2042, 2043, 2082, 2081
1596, 2043, 2044, 2083, 2082
1597, 2044, 2045, 2084, 2083
1598, 2045, 2046, 2085, 2084
1599, 2046, 2047, 2086, 2085
1600, 2047,   86,   87, 2086
1601,  285, 2048, 2087,  284
1602, 2048, 2049, 2088, 2087
1603, 2049, 2050, 2089, 2088
1604, 2050, 2051, 2090, 2089
1605, 2051, 2052, 2091, 2090
1606, 2052, 2053, 2092, 2091
1607, 2053, 2054, 2093, 2092
1608, 2054, 2055, 2094, 2093
1609, 2055, 2056, 2095, 2094
1610, 2056, 2057, 2096, 2095
1611, 2057, 2058, 2097, 2096
1612, 2058, 2059, 2098, 2097
1613, 2059, 2060, 2099, 2098
1614, 2060, 2061, 2100, 2099
1615, 2061, 2062, 2101, 2100
1616, 2062, 2063, 2102, 2101
1617, 2063, 2064, 2103, 2102
1618, 2064, 2065, 2104, 2103
1619, 2065, 2066, 2105, 2104
1620, 2066, 2067, 2106, 2105
1621, 2067, 2068, 2107, 2106
1622, 2068, 2069, 2108, 2107
1623, 2069, 2070, 2109, 2108
1624, 2070, 2071, 2110, 2109
1625, 2071, 2072, 2111, 2110
1626, 2072, 2073, 2112, 2111
1627, 2073, 2074, 2113, 2112
1628, 2074, 2075, 2114, 2113
1629, 2075, 2076, 2115, 2114
1630, 2076, 2077, 2116, 2115
1631, 2077, 2078, 2117, 2116
1632, 2078, 2079, 2118, 2117
1633, 2079, 2080, 2119, 2118
1634, 2080, 2081, 2120, 2119
1635, 2081, 2082, 2121, 2120
1636, 2082, 2083, 2122, 2121
1637, 2083, 2084, 2123, 2122
1638, 2084, 2085, 2124, 2123
1639, 2085, 2086, 2125, 2124
1640, 2086,   87,   88, 2125
1641,  284, 2087, 2126,  283
1642, 2087, 2088, 2127, 2126
1643, 2088, 2089, 2128, 2127
1644, 2089, 2090, 2129, 2128
1645, 2090, 2091, 2130, 2129
1646, 2091, 2092, 2131, 2130
1647, 2092, 2093, 2132, 2131
1648, 2093, 2094, 2133, 2132
1649, 2094, 2095, 2134, 2133
1650, 2095, 2096, 2135, 2134
1651, 2096, 2097, 2136, 2135
1652, 2097, 2098, 2137, 2136
1653, 2098, 2099, 2138, 2137
1654, 2099, 2100, 2139, 2138
1655, 2100, 2101, 2140, 2139
1656, 2101, 2102, 2141, 2140
1657, 2102, 2103, 2142, 2141
1658, 2103, 2104, 2143, 2142
1659, 2104, 2105, 2144, 2143
1660, 2105, 2106, 2145, 2144
1661, 2106, 2107, 2146, 2145
1662, 2107, 2108, 2147, 2146
1663, 2108, 2109, 2148, 2147
1664, 2109, 2110, 2149, 2148
1665, 2110, 2111, 2150, 2149
1666, 2111, 2112, 2151, 2150
1667, 2112, 2113, 2152, 2151
1668, 2113, 2114, 2153, 2152
1669, 2114, 2115, 2154, 2153
1670, 2115, 2116, 2155, 2154
1671, 2116, 2117, 2156, 2155
1672, 2117, 2118, 2157, 2156
1673, 2118, 2119, 2158, 2157
1674, 2119, 2120, 2159, 2158
1675, 2120, 2121, 2160, 2159
1676, 2121, 2122, 2161, 2160
1677, 2122, 2123, 2162, 2161
1678, 2123, 2124, 2163, 2162
1679, 2124, 2125, 2164, 2163
1680, 2125,   88,   89, 2164
1681,  283, 2126, 2165,  282
1682, 2126, 2127, 2166, 2165
1683, 2127, 2128, 2167, 2166
1684, 2128, 2129, 2168, 2167
1685, 2129, 2130, 2169, 2168
1686, 2130, 2131, 2170, 2169
1687, 2131, 2132, 2171, 2170
1688, 2132, 2133, 2172, 2171
1689, 2133, 2134, 2173, 2172
1690, 2134, 2135, 2174, 2173
1691, 2135, 2136, 2175, 2174
1692, 2136, 2137, 2176, 2175
1693, 2137, 2138, 2177, 2176
1694, 2138, 2139, 2178, 2177
1695, 2139, 2140, 2179, 2178
1696, 2140, 2141, 2180, 2179
1697, 2141, 2142, 2181, 2180
1698, 2142, 2143, 2182, 2181
1699, 2143, 2144, 2183, 2182
1700, 2144, 2145, 2184, 2183
1701, 2145, 2146, 2185, 2184
1702, 2146, 2147, 2186, 2185
1703, 2147, 2148, 2187, 2186
1704, 2148, 2149, 2188, 2187
1705, 2149, 2150, 2189, 2188
1706, 2150, 2151, 2190, 2189
1707, 2151, 2152, 2191, 2190
1708, 2152, 2153, 2192, 2191
1709, 2153, 2154, 2193, 2192
1710, 2154, 2155, 2194, 2193
1711, 2155, 2156, 2195, 2194
1712, 2156, 2157, 2196, 2195
1713, 2157, 2158, 2197, 2196
1714, 2158, 2159, 2198, 2197
1715, 2159, 2160, 2199, 2198
1716, 2160, 2161, 2200, 2199
1717, 2161, 2162, 2201, 2200
1718, 2162, 2163, 2202, 2201
1719, 2163, 2164, 2203, 2202
1720, 2164,   89,   90, 2203
1721,  282, 2165, 2204,  281
1722, 2165, 2166, 2205, 2204
1723, 2166, 2167, 2206, 2205
1724, 2167, 2168, 2207, 2206
1725, 2168, 2169, 2208, 2207
1726, 2169, 2170, 2209, 2208
1727, 2170, 2171, 2210, 2209
1728, 2171, 2172, 2211, 2210
1729, 2172, 2173, 2212, 2211
1730, 2173, 2174, 2213, 2212
1731, 2174, 2175, 2214, 2213
1732, 2175, 2176, 2215, 2214
1733, 2176, 2177, 2216, 2215
1734, 2177, 2178, 2217, 2216
1735, 2178, 2179, 2218, 2217
1736, 2179, 2180, 2219, 2218
1737, 2180, 2181, 2220, 2219
1738, 2181, 2182, 2221, 2220
1739, 2182, 2183, 2222, 2221
1740, 2183, 2184, 2223, 2222
1741, 2184, 2185, 2224, 2223
1742, 2185, 2186, 2225, 2224
1743, 2186, 2187, 2226, 2225
1744, 2187, 2188, 2227, 2226
1745, 2188, 2189, 2228, 2227
1746, 2189, 2190, 2229, 2228
1747, 2190, 2191, 2230, 2229
1748, 2191, 2192, 2231, 2230
1749, 2192, 2193, 2232, 2231
1750, 2193, 2194, 2233, 2232
1751, 2194, 2195, 2234, 2233
1752, 2195, 2196, 2235, 2234
1753, 2196, 2197, 2236, 2235
1754, 2197, 2198, 2237, 2236
1755, 2198, 2199, 2238, 2237
1756, 2199, 2200, 2239, 2238
1757, 2200, 2201, 2240, 2239
1758, 2201, 2202, 2241, 2240
1759, 2202, 2203, 2242, 2241
1760, 2203,   90,   91, 2242
1761,  281, 2204, 2243,  280
1762, 2204, 2205, 2244, 2243
1763, 2205, 2206, 2245, 2244
1764, 2206, 2207, 2246, 2245
1765, 2207, 2208, 2247, 2246
1766, 2208, 2209, 2248, 2247
1767, 2209, 2210, 2249, 2248
1768, 2210, 2211, 2250, 2249
1769, 2211, 2212, 2251, 2250
1770, 2212, 2213, 2252, 2251
1771, 2213, 2214, 2253, 2252
1772, 2214, 2215, 2254, 2253
1773, 2215, 2216, 2255, 2254
1774, 2216, 2217, 2256, 2255
1775, 2217, 2218, 2257, 2256
1776, 2218, 2219, 2258, 2257
1777, 2219, 2220, 2259, 2258
1778, 2220, 2221, 2260, 2259
1779, 2221, 2222, 2261, 2260
1780, 2222, 2223, 2262, 2261
1781, 2223, 2224, 2263, 2262
1782, 2224, 2225, 2264, 2263
1783, 2225, 2226, 2265, 2264
1784, 2226, 2227, 2266, 2265
1785, 2227, 2228, 2267, 2266
1786, 2228, 2229, 2268, 2267
1787, 2229, 2230, 2269, 2268
1788, 2230, 2231, 2270, 2269
1789, 2231, 2232, 2271, 2270
1790, 2232, 2233, 2272, 2271
1791, 2233, 2234, 2273, 2272
1792, 2234, 2235, 2274, 2273
1793, 2235, 2236, 2275, 2274
1794, 2236, 2237, 2276, 2275
1795, 2237, 2238, 2277, 2276
1796, 2238, 2239, 2278, 2277
1797, 2239, 2240, 2279, 2278
1798, 2240, 2241, 2280, 2279
1799, 2241, 2242, 2281, 2280
1800, 2242,   91,   92, 2281
1801,  280, 2243, 2282,  279
1802, 2243, 2244, 2283, 2282
1803, 2244, 2245, 2284, 2283
1804, 2245, 2246, 2285, 2284
1805, 2246, 2247, 2286, 2285
1806, 2247, 2248, 2287, 2286
1807, 2248, 2249, 2288, 2287
1808, 2249, 2250, 2289, 2288
1809, 2250, 2251, 2290, 2289
1810, 2251, 2252, 2291, 2290
1811, 2252, 2253, 2292, 2291
1812, 2253, 2254, 2293, 2292
1813, 2254, 2255, 2294, 2293
1814, 2255, 2256, 2295, 2294
1815, 2256, 2257, 2296, 2295
1816, 2257, 2258, 2297, 2296
1817, 2258, 2259, 2298, 2297
1818, 2259, 2260, 2299, 2298
1819, 2260, 2261, 2300, 2299
1820, 2261, 2262, 2301, 2300
1821, 2262, 2263, 2302, 2301
1822, 2263, 2264, 2303, 2302
1823, 2264, 2265, 2304, 2303
1824, 2265, 2266, 2305, 2304
1825, 2266, 2267, 2306, 2305
1826, 2267, 2268, 2307, 2306
1827, 2268, 2269, 2308, 2307
1828, 2269, 2270, 2309, 2308
1829, 2270, 2271, 2310, 2309
1830, 2271, 2272, 2311, 2310
1831, 2272, 2273, 2312, 2311
1832, 2273, 2274, 2313, 2312
1833, 2274, 2275, 2314, 2313
1834, 2275, 2276, 2315, 2314
1835, 2276, 2277, 2316, 2315
1836, 2277, 2278, 2317, 2316
1837, 2278, 2279, 2318, 2317
1838, 2279, 2280, 2319, 2318
1839, 2280, 2281, 2320, 2319
1840, 2281,   92,   93, 2320
1841,  279, 2282, 2321,  278
1842, 2282, 2283, 2322, 2321
1843, 2283, 2284, 2323, 2322
1844, 2284, 2285, 2324, 2323
1845, 2285, 2286, 2325, 2324
1846, 2286, 2287, 2326, 2325
1847, 2287, 2288, 2327, 2326
1848, 2288, 2289, 2328, 2327
1849, 2289, 2290, 2329, 2328
1850, 2290, 2291, 2330, 2329
1851, 2291, 2292, 2331, 2330
1852, 2292, 2293, 2332, 2331
1853, 2293, 2294, 2333, 2332
1854, 2294, 2295, 2334, 2333
1855, 2295, 2296, 2335, 2334
1856, 2296, 2297, 2336, 2335
1857, 2297, 2298, 2337, 2336
1858, 2298, 2299, 2338, 2337
1859, 2299, 2300, 2339, 2338
1860, 2300, 2301, 2340, 2339
1861, 2301, 2302, 2341, 2340
1862, 2302, 2303, 2342, 2341
1863, 2303, 2304, 2343, 2342
1864, 2304, 2305, 2344, 2343
1865, 2305, 2306, 2345, 2344
1866, 2306, 2307, 2346, 2345
1867, 2307, 2308, 2347, 2346
1868, 2308, 2309, 2348, 2347
1869, 2309, 2310, 2349, 2348
1870, 2310, 2311, 2350, 2349
1871, 2311, 2312, 2351, 2350
1872, 2312, 2313, 2352, 2351
1873, 2313, 2314, 2353, 2352
1874, 2314, 2315, 2354, 2353
1875, 2315, 2316, 2355, 2354
1876, 2316, 2317, 2356, 2355
1877, 2317, 2318, 2357, 2356
1878, 2318, 2319, 2358, 2357
1879, 2319, 2320, 2359, 2358
1880, 2320,   93,   94, 2359
1881,  278, 2321, 2360,  277
1882, 2321, 2322, 2361, 2360
1883, 2322, 2323, 2362, 2361
1884, 2323, 2324, 2363, 2362
1885, 2324, 2325, 2364, 2363
1886, 2325, 2326, 2365, 2364
1887, 2326, 2327, 2366, 2365
1888, 2327, 2328, 2367, 2366
1889, 2328, 2329, 2368, 2367
1890, 2329, 2330, 2369, 2368
1891, 2330, 2331, 2370, 2369
1892, 2331, 2332, 2371, 2370
1893, 2332, 2333, 2372, 2371
1894, 2333, 2334, 2373, 2372
1895, 2334, 2335, 2374, 2373
1896, 2335, 2336, 2375, 2374
1897, 2336, 2337, 2376, 2375
1898, 2337, 2338, 2377, 2376
1899, 2338, 2339, 2378, 2377
1900, 2339, 2340, 2379, 2378
1901, 2340, 2341, 2380, 2379
1902, 2341, 2342, 2381, 2380
1903, 2342, 2343, 2382, 2381
1904, 2343, 2344, 2383, 2382
1905, 2344, 2345, 2384, 2383
1906, 2345, 2346, 2385, 2384
1907, 2346, 2347, 2386, 2385
1908, 2347, 2348, 2387, 2386
1909, 2348, 2349, 2388, 2387
1910, 2349, 2350, 2389, 2388
1911, 2350, 2351, 2390, 2389
1912, 2351, 2352, 2391, 2390
1913, 2352, 2353, 2392, 2391
1914, 2353, 2354, 2393, 2392
1915, 2354, 2355, 2394, 2393
1916, 2355, 2356, 2395, 2394
1917, 2356, 2357, 2396, 2395
1918, 2357, 2358, 2397, 2396
1919, 2358, 2359, 2398, 2397
1920, 2359,   94,   95, 2398
1921,  277, 2360, 2399,  276
1922, 2360, 2361, 2400, 2399
1923, 2361, 2362, 2401, 2400
1924, 2362, 2363, 2402, 2401
1925, 2363, 2364, 2403, 2402
1926, 2364, 2365, 2404, 2403
1927, 2365, 2366, 2405, 2404
1928, 2366, 2367, 2406, 2405
1929, 2367, 2368, 2407, 2406
1930, 2368, 2369, 2408, 2407
1931, 2369, 2370, 2409, 2408
1932, 2370, 2371, 2410, 2409
1933, 2371, 2372, 2411, 2410
1934, 2372, 2373, 2412, 2411
1935, 2373, 2374, 2413, 2412
1936, 2374, 2375, 2414, 2413
1937, 2375, 2376, 2415, 2414
1938, 2376, 2377, 2416, 2415
1939, 2377, 2378, 2417, 2416
1940, 2378, 2379, 2418, 2417
1941, 2379, 2380, 2419, 2418
1942, 2380, 2381, 2420, 2419
1943, 2381, 2382, 2421, 2420
1944, 2382, 2383, 2422, 2421
1945, 2383, 2384, 2423, 2422
1946, 2384, 2385, 2424, 2423
1947, 2385, 2386, 2425, 2424
1948, 2386, 2387, 2426, 2425
1949, 2387, 2388, 2427, 2426
1950, 2388, 2389, 2428, 2427
1951, 2389, 2390, 2429, 2428
1952, 2390, 2391, 2430, 2429
1953, 2391, 2392, 2431, 2430
1954, 2392, 2393, 2432, 2431
1955, 2393, 2394, 2433, 2432
1956, 2394, 2395, 2434, 2433
1957, 2395, 2396, 2435, 2434
1958, 2396, 2397, 2436, 2435
1959, 2397, 2398, 2437, 2436
1960, 2398,   95,   96, 2437
1961,  276, 2399, 2438,  275
1962, 2399, 2400, 2439, 2438
1963, 2400, 2401, 2440, 2439
1964, 2401, 2402, 2441, 2440
1965, 2402, 2403, 2442, 2441
1966, 2403, 2404, 2443, 2442
1967, 2404, 2405, 2444, 2443
1968, 2405, 2406, 2445, 2444
1969, 2406, 2407, 2446, 2445
1970, 2407, 2408, 2447, 2446
1971, 2408, 2409, 2448, 2447
1972, 2409, 2410, 2449, 2448
1973, 2410, 2411, 2450, 2449
1974, 2411, 2412, 2451, 2450
1975, 2412, 2413, 2452, 2451
1976, 2413, 2414, 2453, 2452
1977, 2414, 2415, 2454, 2453
1978, 2415, 2416, 2455, 2454
1979, 2416, 2417, 2456, 2455
1980, 2417, 2418, 2457, 2456
1981, 2418, 2419, 2458, 2457
1982, 2419, 2420, 2459, 2458
1983, 2420, 2421, 2460, 2459
1984, 2421, 2422, 2461, 2460
1985, 2422, 2423, 2462, 2461
1986, 2423, 2424, 2463, 2462
1987, 2424, 2425, 2464, 2463
1988, 2425, 2426, 2465, 2464
1989, 2426, 2427, 2466, 2465
1990, 2427, 2428, 2467, 2466
1991, 2428, 2429, 2468, 2467
1992, 2429, 2430, 2469, 2468
1993, 2430, 2431, 2470, 2469
1994, 2431, 2432, 2471, 2470
1995, 2432, 2433, 2472, 2471
1996, 2433, 2434, 2473, 2472
1997, 2434, 2435, 2474, 2473
1998, 2435, 2436, 2475, 2474
1999, 2436, 2437, 2476, 2475
2000, 2437,   96,   97, 2476
2001,  275, 2438, 2477,  274
2002, 2438, 2439, 2478, 2477
2003, 2439, 2440, 2479, 2478
2004, 2440, 2441, 2480, 2479
2005, 2441, 2442, 2481, 2480
2006, 2442, 2443, 2482, 2481
2007, 2443, 2444, 2483, 2482
2008, 2444, 2445, 2484, 2483
2009, 2445, 2446, 2485, 2484
2010, 2446, 2447, 2486, 2485
2011, 2447, 2448, 2487, 2486
2012, 2448, 2449, 2488, 2487
2013, 2449, 2450, 2489, 2488
2014, 2450, 2451, 2490, 2489
2015, 2451, 2452, 2491, 2490
2016, 2452, 2453, 2492, 2491
2017, 2453, 2454, 2493, 2492
2018, 2454, 2455, 2494, 2493
2019, 2455, 2456, 2495, 2494
2020, 2456, 2457, 2496, 2495
2021, 2457, 2458, 2497, 2496
2022, 2458, 2459, 2498, 2497
2023, 2459, 2460, 2499, 2498
2024, 2460, 2461, 2500, 2499
2025, 2461, 2462, 2501, 2500
2026, 2462, 2463, 2502, 2501
2027, 2463, 2464, 2503, 2502
2028, 2464, 2465, 2504, 2503
2029, 2465, 2466, 2505, 2504
2030, 2466, 2467, 2506, 2505
2031, 2467, 2468, 2507, 2506
2032, 2468, 2469, 2508, 2507
2033, 2469, 2470, 2509, 2508
2034, 2470, 2471, 2510, 2509
2035, 2471, 2472, 2511, 2510
2036, 2472, 2473, 2512, 2511
2037, 2473, 2474, 2513, 2512
2038, 2474, 2475, 2514, 2513
2039, 2475, 2476, 2515, 2514
2040, 2476,   97,   98, 2515
2041,  274, 2477, 2516,  273
2042, 2477, 2478, 2517, 2516
2043, 2478, 2479, 2518, 2517
2044, 2479, 2480, 2519, 2518
2045, 2480, 2481, 2520, 2519
2046, 2481, 2482, 2521, 2520
2047, 2482, 2483, 2522, 2521
2048, 2483, 2484, 2523, 2522
2049, 2484, 2485, 2524, 2523
2050, 2485, 2486, 2525, 2524
2051, 2486, 2487, 2526, 2525
2052, 2487, 2488, 2527, 2526
2053, 2488, 2489, 2528, 2527
2054, 2489, 2490, 2529, 2528
2055, 2490, 2491, 2530, 2529
2056, 2491, 2492, 2531, 2530
2057, 2492, 2493, 2532, 2531
2058, 2493, 2494, 2533, 2532
2059, 2494, 2495, 2534, 2533
2060, 2495, 2496, 2535, 2534
2061, 2496, 2497, 2536, 2535
2062, 2497, 2498, 2537, 2536
2063, 2498, 2499, 2538, 2537
2064, 2499, 2500, 2539, 2538
2065, 2500, 2501, 2540, 2539
2066, 2501, 2502, 2541, 2540
2067, 2502, 2503, 2542, 2541
2068, 2503, 2504, 2543, 2542
2069, 2504, 2505, 2544, 2543
2070, 2505, 2506, 2545, 2544
2071, 2506, 2507, 2546, 2545
2072, 2507, 2508, 2547, 2546
2073, 2508, 2509, 2548, 2547
2074, 2509, 2510, 2549, 2548
2075, 2510, 2511, 2550, 2549
2076, 2511, 2512, 2551, 2550
2077, 2512, 2513, 2552, 2551
2078, 2513, 2514, 2553, 2552
2079, 2514, 2515, 2554, 2553
2080, 2515,   98,   99, 2554
2081,  273, 2516, 2555,  272
2082, 2516, 2517, 2556, 2555
2083, 2517, 2518, 2557, 2556
2084, 2518, 2519, 2558, 2557
2085, 2519, 2520, 2559, 2558
2086, 2520, 2521, 2560, 2559
2087, 2521, 2522, 2561, 2560
2088, 2522, 2523, 2562, 2561
2089, 2523, 2524, 2563, 2562
2090, 2524, 2525, 2564, 2563
2091, 2525, 2526, 2565, 2564
2092, 2526, 2527, 2566, 2565
2093, 2527, 2528, 2567, 2566
2094, 2528, 2529, 2568, 2567
2095, 2529, 2530, 2569, 2568
2096, 2530, 2531, 2570, 2569
2097, 2531, 2532, 2571, 2570
2098, 2532, 2533, 2572, 2571
2099, 2533, 2534, 2573, 2572
2100, 2534, 2535, 2574, 2573
2101, 2535, 2536, 2575, 2574
2102, 2536, 2537, 2576, 2575
2103, 2537, 2538, 2577, 2576
2104, 2538, 2539, 2578, 2577
2105, 2539, 2540, 2579, 2578
2106, 2540, 2541, 2580, 2579
2107, 2541, 2542, 2581, 2580
2108, 2542, 2543, 2582, 2581
2109, 2543, 2544, 2583, 2582
2110, 2544, 2545, 2584, 2583
2111, 2545, 2546, 2585, 2584
2112, 2546, 2547, 2586, 2585
2113, 2547, 2548, 2587, 2586
2114, 2548, 2549, 2588, 2587
2115, 2549, 2550, 2589, 2588
2116, 2550, 2551, 2590, 2589
2117, 2551, 2552, 2591, 2590
2118, 2552, 2553, 2592, 2591
2119, 2553, 2554, 2593, 2592
2120, 2554,   99,  100, 2593
2121,  272, 2555, 2594,  271
2122, 2555, 2556, 2595, 2594
2123, 2556, 2557, 2596, 2595
2124, 2557, 2558, 2597, 2596
2125, 2558, 2559, 2598, 2597
2126, 2559, 2560, 2599, 2598
2127, 2560, 2561, 2600, 2599
2128, 2561, 2562, 2601, 2600
2129, 2562, 2563, 2602, 2601
2130, 2563, 2564, 2603, 2602
2131, 2564, 2565, 2604, 2603
2132, 2565, 2566, 2605, 2604
2133, 2566, 2567, 2606, 2605
2134, 2567, 2568, 2607, 2606
2135, 2568, 2569, 2608, 2607
2136, 2569, 2570, 2609, 2608
2137, 2570, 2571, 2610, 2609
2138, 2571, 2572, 2611, 2610
2139, 2572, 2573, 2612, 2611
2140, 2573, 2574, 2613, 2612
2141, 2574, 2575, 2614, 2613
2142, 2575, 2576, 2615, 2614
2143, 2576, 2577, 2616, 2615
2144, 2577, 2578, 2617, 2616
2145, 2578, 2579, 2618, 2617
2146, 2579, 2580, 2619, 2618
2147, 2580, 2581, 2620, 2619
2148, 2581, 2582, 2621, 2620
2149, 2582, 2583, 2622, 2621
2150, 2583, 2584, 2623, 2622
2151, 2584, 2585, 2624, 2623
2152, 2585, 2586, 2625, 2624
2153, 2586, 2587, 2626, 2625
2154, 2587, 2588, 2627, 2626
2155, 2588, 2589, 2628, 2627
2156, 2589, 2590, 2629, 2628
2157, 2590, 2591, 2630, 2629
2158, 2591, 2592, 2631, 2630
2159, 2592, 2593, 2632, 2631
2160, 2593,  100,  101, 2632
2161,  271, 2594, 2633,  270
2162, 2594, 2595, 2634, 2633
2163, 2595, 2596, 2635, 2634
2164, 2596, 2597, 2636, 2635
2165, 2597, 2598, 2637, 2636
2166, 2598, 2599, 2638, 2637
2167, 2599, 2600, 2639, 2638
2168, 2600, 2601, 2640, 2639
2169, 2601, 2602, 2641, 2640
2170, 2602, 2603, 2642, 2641
2171, 2603, 2604, 2643, 2642
2172, 2604, 2605, 2644, 2643
2173, 2605, 2606, 2645, 2644
2174, 2606, 2607, 2646, 2645
2175, 2607, 2608, 2647, 2646
2176, 2608, 2609, 2648, 2647
2177, 2609, 2610, 2649, 2648
2178, 2610, 2611, 2650, 2649
2179, 2611, 2612, 2651, 2650
2180, 2612, 2613, 2652, 2651
2181, 2613, 2614, 2653, 2652
2182, 2614, 2615, 2654, 2653
2183, 2615, 2616, 2655, 2654
2184, 2616, 2617, 2656, 2655
2185, 2617, 2618, 2657, 2656
2186, 2618, 2619, 2658, 2657
2187, 2619, 2620, 2659, 2658
2188, 2620, 2621, 2660, 2659
2189, 2621, 2622, 2661, 2660
2190, 2622, 2623, 2662, 2661
2191, 2623, 2624, 2663, 2662
2192, 2624, 2625, 2664, 2663
2193, 2625, 2626, 2665, 2664
2194, 2626, 2627, 2666, 2665
2195, 2627, 2628, 2667, 2666
2196, 2628, 2629, 2668, 2667
2197, 2629, 2630, 2669, 2668
2198, 2630, 2631, 2670, 2669
2199, 2631, 2632, 2671, 2670
2200, 2632,  101,  102, 2671
2201,  270, 2633, 2672,  269
2202, 2633, 2634, 2673, 2672
2203, 2634, 2635, 2674, 2673
2204, 2635, 2636, 2675, 2674
2205, 2636, 2637, 2676, 2675
2206, 2637, 2638, 2677, 2676
2207, 2638, 2639, 2678, 2677
2208, 2639, 2640, 2679, 2678
2209, 2640, 2641, 2680, 2679
2210, 2641, 2642, 2681, 2680
2211, 2642, 2643, 2682, 2681
2212, 2643, 2644, 2683, 2682
2213, 2644, 2645, 2684, 2683
2214, 2645, 2646, 2685, 2684
2215, 2646, 2647, 2686, 2685
2216, 2647, 2648, 2687, 2686
2217, 2648, 2649, 2688, 2687
2218, 2649, 2650, 2689, 2688
2219, 2650, 2651, 2690, 2689
2220, 2651, 2652, 2691, 2690
2221, 2652, 2653, 2692, 2691
2222, 2653, 2654, 2693, 2692
2223, 2654, 2655, 2694, 2693
2224, 2655, 2656, 2695, 2694
2225, 2656, 2657, 2696, 2695
2226, 2657, 2658, 2697, 2696
2227, 2658, 2659, 2698, 2697
2228, 2659, 2660, 2699, 2698
2229, 2660, 2661, 2700, 2699
2230, 2661, 2662, 2701, 2700
2231, 2662, 2663, 2702, 2701
2232, 2663, 2664, 2703, 2702
2233, 2664, 2665, 2704, 2703
2234, 2665, 2666, 2705, 2704
2235, 2666, 2667, 2706, 2705
2236, 2667, 2668, 2707, 2706
2237, 2668, 2669, 2708, 2707
2238, 2669, 2670, 2709, 2708
2239, 2670, 2671, 2710, 2709
2240, 2671,  102,  103, 2710
2241,  269, 2672, 2711,  268
2242, 2672, 2673, 2712, 2711
2243, 2673, 2674, 2713, 2712
2244, 2674, 2675, 2714, 2713
2245, 2675, 2676, 2715, 2714
2246, 2676, 2677, 2716, 2715
2247, 2677, 2678, 2717, 2716
2248, 2678, 2679, 2718, 2717
2249, 2679, 2680, 2719, 2718
2250, 2680, 2681, 2720, 2719
2251, 2681, 2682, 2721, 2720
2252, 2682, 2683, 2722, 2721
2253, 2683, 2684, 2723, 2722
2254, 2684, 2685, 2724, 2723
2255, 2685, 2686, 2725, 2724
2256, 2686, 2687, 2726, 2725
2257, 2687, 2688, 2727, 2726
2258, 2688, 2689, 2728, 2727
2259, 2689, 2690, 2729, 2728
2260, 2690, 2691, 2730, 2729
2261, 2691, 2692, 2731, 2730
2262, 2692, 2693, 2732, 2731
2263, 2693, 2694, 2733, 2732
2264, 2694, 2695, 2734, 2733
2265, 2695, 2696, 2735, 2734
2266, 2696, 2697, 2736, 2735
2267, 2697, 2698, 2737, 2736
2268, 2698, 2699, 2738, 2737
2269, 2699, 2700, 2739, 2738
2270, 2700, 2701, 2740, 2739
2271, 2701, 2702, 2741, 2740
2272, 2702, 2703, 2742, 2741
2273, 2703, 2704, 2743, 2742
2274, 2704, 2705, 2744, 2743
2275, 2705, 2706, 2745, 2744
2276, 2706, 2707, 2746, 2745
2277, 2707, 2708, 2747, 2746
2278, 2708, 2709, 2748, 2747
2279, 2709, 2710, 2749, 2748
2280, 2710,  103,  104, 2749
2281,  268, 2711, 2750,  267
2282, 2711, 2712, 2751, 2750
2283, 2712, 2713, 2752, 2751
2284, 2713, 2714, 2753, 2752
2285, 2714, 2715, 2754, 2753
2286, 2715, 2716, 2755, 2754
2287, 2716, 2717, 2756, 2755
2288, 2717, 2718, 2757, 2756
2289, 2718, 2719, 2758, 2757
2290, 2719, 2720, 2759, 2758
2291, 2720, 2721, 2760, 2759
2292, 2721, 2722, 2761, 2760
2293, 2722, 2723, 2762, 2761
2294, 2723, 2724, 2763, 2762
2295, 2724, 2725, 2764, 2763
2296, 2725, 2726, 2765, 2764
2297, 2726, 2727, 2766, 2765
2298, 2727, 2728, 2767, 2766
2299, 2728, 2729, 2768, 2767
2300, 2729, 2730, 2769, 2768
2301, 2730, 2731, 2770, 2769
2302, 2731, 2732, 2771, 2770
2303, 2732, 2733, 2772, 2771
2304, 2733, 2734, 2773, 2772
2305, 2734, 2735, 2774, 2773
2306, 2735, 2736, 2775, 2774
2307, 2736, 2737, 2776, 2775
2308, 2737, 2738, 2777, 2776
2309, 2738, 2739, 2778, 2777
2310, 2739, 2740, 2779, 2778
2311, 2740, 2741, 2780, 2779
2312, 2741, 2742, 2781, 2780
2313, 2742, 2743, 2782, 2781
2314, 2743, 2744, 2783, 2782
2315, 2744, 2745, 2784, 2783
2316, 2745, 2746, 2785, 2784
2317, 2746, 2747, 2786, 2785
2318, 2747, 2748, 2787, 2786
2319, 2748, 2749, 2788, 2787
2320, 2749,  104,  105, 2788
2321,  267, 2750, 2789,  266
2322, 2750, 2751, 2790, 2789
2323, 2751, 2752, 2791, 2790
2324, 2752, 2753, 2792, 2791
2325, 2753, 2754, 2793, 2792
2326, 2754, 2755, 2794, 2793
2327, 2755, 2756, 2795, 2794
2328, 2756, 2757, 2796, 2795
2329, 2757, 2758, 2797, 2796
2330, 2758, 2759, 2798, 2797
2331, 2759, 2760, 2799, 2798
2332, 2760, 2761, 2800, 2799
2333, 2761, 2762, 2801, 2800
2334, 2762, 2763, 2802, 2801
2335, 2763, 2764, 2803, 2802
2336, 2764, 2765, 2804, 2803
2337, 2765, 2766, 2805, 2804
2338, 2766, 2767, 2806, 2805
2339, 2767, 2768, 2807, 2806
2340, 2768, 2769, 2808, 2807
2341, 2769, 2770, 2809, 2808
2342, 2770, 2771, 2810, 2809
2343, 2771, 2772, 2811, 2810
2344, 2772, 2773, 2812, 2811
2345, 2773, 2774, 2813, 2812
2346, 2774, 2775, 2814, 2813
2347, 2775, 2776, 2815, 2814
2348, 2776, 2777, 2816, 2815
2349, 2777, 2778, 2817, 2816
2350, 2778, 2779, 2818, 2817
2351, 2779, 2780, 2819, 2818
2352, 2780, 2781, 2820, 2819
2353, 2781, 2782, 2821, 2820
2354, 2782, 2783, 2822, 2821
2355, 2783, 2784, 2823, 2822
2356, 2784, 2785, 2824, 2823
2357, 2785, 2786, 2825, 2824
2358, 2786, 2787, 2826, 2825
2359, 2787, 2788, 2827, 2826
2360, 2788,  105,  106, 2827
2361,  266, 2789, 2828,  265
2362, 2789, 2790, 2829, 2828
2363, 2790, 2791, 2830, 2829
2364, 2791, 2792, 2831, 2830
2365, 2792, 2793, 2832, 2831
2366, 2793, 2794, 2833, 2832
2367, 2794, 2795, 2834, 2833
2368, 2795, 2796, 2835, 2834
2369, 2796, 2797, 2836, 2835
2370, 2797, 2798, 2837, 2836
2371, 2798, 2799, 2838, 2837
2372, 2799, 2800, 2839, 2838
2373, 2800, 2801, 2840, 2839
2374, 2801, 2802, 2841, 2840
2375, 2802, 2803, 2842, 2841
2376, 2803, 2804, 2843, 2842
2377, 2804, 2805, 2844, 2843
2378, 2805, 2806, 2845, 2844
2379, 2806, 2807, 2846, 2845
2380, 2807, 2808, 2847, 2846
2381, 2808, 2809, 2848, 2847
2382, 2809, 2810, 2849, 2848
2383, 2810, 2811, 2850, 2849
2384, 2811, 2812, 2851, 2850
2385, 2812, 2813, 2852, 2851
2386, 2813, 2814, 2853, 2852
2387, 2814, 2815, 2854, 2853
2388, 2815, 2816, 2855, 2854
2389, 2816, 2817, 2856, 2855
2390, 2817, 2818, 2857, 2856
2391, 2818, 2819, 2858, 2857
2392, 2819, 2820, 2859, 2858
2393, 2820, 2821, 2860, 2859
2394, 2821, 2822, 2861, 2860
2395, 2822, 2823, 2862, 2861
2396, 2823, 2824, 2863, 2862
2397, 2824, 2825, 2864, 2863
2398, 2825, 2826, 2865, 2864
2399, 2826, 2827, 2866, 2865
2400, 2827,  106,  107, 2866
2401,  265, 2828, 2867,  264
2402, 2828, 2829, 2868, 2867
2403, 2829, 2830, 2869, 2868
2404, 2830, 2831, 2870, 2869
2405, 2831, 2832, 2871, 2870
2406, 2832, 2833, 2872, 2871
2407, 2833, 2834, 2873, 2872
2408, 2834, 2835, 2874, 2873
2409, 2835, 2836, 2875, 2874
2410, 2836, 2837, 2876, 2875
2411, 2837, 2838, 2877, 2876
2412, 2838, 2839, 2878, 2877
2413, 2839, 2840, 2879, 2878
2414, 2840, 2841, 2880, 2879
2415, 2841, 2842, 2881, 2880
2416, 2842, 2843, 2882, 2881
2417, 2843, 2844, 2883, 2882
2418, 2844, 2845, 2884, 2883
2419, 2845, 2846, 2885, 2884
2420, 2846, 2847, 2886, 2885
2421, 2847, 2848, 2887, 2886
2422, 2848, 2849, 2888, 2887
2423, 2849, 2850, 2889, 2888
2424, 2850, 2851, 2890, 2889
2425, 2851, 2852, 2891, 2890
2426, 2852, 2853, 2892, 2891
2427, 2853, 2854, 2893, 2892
2428, 2854, 2855, 2894, 2893
2429, 2855, 2856, 2895, 2894
2430, 2856, 2857, 2896, 2895
2431, 2857, 2858, 2897, 2896
2432, 2858, 2859, 2898, 2897
2433, 2859, 2860, 2899, 2898
2434, 2860, 2861, 2900, 2899
2435, 2861, 2862, 2901, 2900
2436, 2862, 2863, 2902, 2901
2437, 2863, 2864, 2903, 2902
2438, 2864, 2865, 2904, 2903
2439, 2865, 2866, 2905, 2904
2440, 2866,  107,  108, 2905
2441,  264, 2867, 2906,  263
2442, 2867, 2868, 2907, 2906
2443, 2868, 2869, 2908, 2907
2444, 2869, 2870, 2909, 2908
2445, 2870, 2871, 2910, 2909
2446, 2871, 2872, 2911, 2910
2447, 2872, 2873, 2912, 2911
2448, 2873, 2874, 2913, 2912
2449, 2874, 2875, 2914, 2913
2450, 2875, 2876, 2915, 2914
2451, 2876, 2877, 2916, 2915
2452, 2877, 2878, 2917, 2916
2453, 2878, 2879, 2918, 2917
2454, 2879, 2880, 2919, 2918
2455, 2880, 2881, 2920, 2919
2456, 2881, 2882, 2921, 2920
2457, 2882, 2883, 2922, 2921
2458, 2883, 2884, 2923, 2922
2459, 2884, 2885, 2924, 2923
2460, 2885, 2886, 2925, 2924
2461, 2886, 2887, 2926, 2925
2462, 2887, 2888, 2927, 2926
2463, 2888, 2889, 2928, 2927
2464, 2889, 2890, 2929, 2928
2465, 2890, 2891, 2930, 2929
2466, 2891, 2892, 2931, 2930
2467, 2892, 2893, 2932, 2931
2468, 2893, 2894, 2933, 2932
2469, 2894, 2895, 2934, 2933
2470, 2895, 2896, 2935, 2934
2471, 2896, 2897, 2936, 2935
2472, 2897, 2898, 2937, 2936
2473, 2898, 2899, 2938, 2937
2474, 2899, 2900, 2939, 2938
2475, 2900, 2901, 2940, 2939
2476, 2901, 2902, 2941, 2940
2477, 2902, 2903, 2942, 2941
2478, 2903, 2904, 2943, 2942
2479, 2904, 2905, 2944, 2943
2480, 2905,  108,  109, 2944
2481,  263, 2906, 2945,  262
2482, 2906, 2907, 2946, 2945
2483, 2907, 2908, 2947, 2946
2484, 2908, 2909, 2948, 2947
2485, 2909, 2910, 2949, 2948
2486, 2910, 2911, 2950, 2949
2487, 2911, 2912, 2951, 2950
2488, 2912, 2913, 2952, 2951
2489, 2913, 2914, 2953, 2952
2490, 2914, 2915, 2954, 2953
2491, 2915, 2916, 2955, 2954
2492, 2916, 2917, 2956, 2955
2493, 2917, 2918, 2957, 2956
2494, 2918, 2919, 2958, 2957
2495, 2919, 2920, 2959, 2958
2496, 2920, 2921, 2960, 2959
2497, 2921, 2922, 2961, 2960
2498, 2922, 2923, 2962, 2961
2499, 2923, 2924, 2963, 2962
2500, 2924, 2925, 2964, 2963
2501, 2925, 2926, 2965, 2964
2502, 2926, 2927, 2966, 2965
2503, 2927, 2928, 2967, 2966
2504, 2928, 2929, 2968, 2967
2505, 2929, 2930, 2969, 2968
2506, 2930, 2931, 2970, 2969
2507, 2931, 2932, 2971, 2970
2508, 2932, 2933, 2972, 2971
2509, 2933, 2934, 2973, 2972
2510, 2934, 2935, 2974, 2973
2511, 2935, 2936, 2975, 2974
2512, 2936, 2937, 2976, 2975
2513, 2937, 2938, 2977, 2976
2514, 2938, 2939, 2978, 2977
2515, 2939, 2940, 2979, 2978
2516, 2940, 2941, 2980, 2979
2517, 2941, 2942, 2981, 2980
2518, 2942, 2943, 2982, 2981
2519, 2943, 2944, 2983, 2982
2520, 2944,  109,  110, 2983
2521,  262, 2945, 2984,  261
2522, 2945, 2946, 2985, 2984
2523, 2946, 2947, 2986, 2985
2524, 2947, 2948, 2987, 2986
2525, 2948, 2949, 2988, 2987
2526, 2949, 2950, 2989, 2988
2527, 2950, 2951, 2990, 2989
2528, 2951, 2952, 2991, 2990
2529, 2952, 2953, 2992, 2991
2530, 2953, 2954, 2993, 2992
2531, 2954, 2955, 2994, 2993
2532, 2955, 2956, 2995, 2994
2533, 2956, 2957, 2996, 2995
2534, 2957, 2958, 2997, 2996
2535, 2958, 2959, 2998, 2997
2536, 2959, 2960, 2999, 2998
2537, 2960, 2961, 3000, 2999
2538, 2961, 2962, 3001, 3000
2539, 2962, 2963, 3002, 3001
2540, 2963, 2964, 3003, 3002
2541, 2964, 2965, 3004, 3003
2542, 2965, 2966, 3005, 3004
2543, 2966, 2967, 3006, 3005
2544, 2967, 2968, 3007, 3006
2545, 2968, 2969, 3008, 3007
2546, 2969, 2970, 3009, 3008
2547, 2970, 2971, 3010, 3009
2548, 2971, 2972, 3011, 3010
2549, 2972, 2973, 3012, 3011
2550, 2973, 2974, 3013, 3012
2551, 2974, 2975, 3014, 3013
2552, 2975, 2976, 3015, 3014
2553, 2976, 2977, 3016, 3015
2554, 2977, 2978, 3017, 3016
2555, 2978, 2979, 3018, 3017
2556, 2979, 2980, 3019, 3018
2557, 2980, 2981, 3020, 3019
2558, 2981, 2982, 3021, 3020
2559, 2982, 2983, 3022, 3021
2560, 2983,  110,  111, 3022
2561,  261, 2984, 3023,  260
2562, 2984, 2985, 3024, 3023
2563, 2985, 2986, 3025, 3024
2564, 2986, 2987, 3026, 3025
2565, 2987, 2988, 3027, 3026
2566, 2988, 2989, 3028, 3027
2567, 2989, 2990, 3029, 3028
2568, 2990, 2991, 3030, 3029
2569, 2991, 2992, 3031, 3030
2570, 2992, 2993, 3032, 3031
2571, 2993, 2994, 3033, 3032
2572, 2994, 2995, 3034, 3033
2573, 2995, 2996, 3035, 3034
2574, 2996, 2997, 3036, 3035
2575, 2997, 2998, 3037, 3036
2576, 2998, 2999, 3038, 3037
2577, 2999, 3000, 3039, 3038
2578, 3000, 3001, 3040, 3039
2579, 3001, 3002, 3041, 3040
2580, 3002, 3003, 3042, 3041
2581, 3003, 3004, 3043, 3042
2582, 3004, 3005, 3044, 3043
2583, 3005, 3006, 3045, 3044
2584, 3006, 3007, 3046, 3045
2585, 3007, 3008, 3047, 3046
2586, 3008, 3009, 3048, 3047
2587, 3009, 3010, 3049, 3048
2588, 3010, 3011, 3050, 3049
2589, 3011, 3012, 3051, 3050
2590, 3012, 3013, 3052, 3051
2591, 3013, 3014, 3053, 3052
2592, 3014, 3015, 3054, 3053
2593, 3015, 3016, 3055, 3054
2594, 3016, 3017, 3056, 3055
2595, 3017, 3018, 3057, 3056
2596, 3018, 3019, 3058, 3057
2597, 3019, 3020, 3059, 3058
2598, 3020, 3021, 3060, 3059
2599, 3021, 3022, 3061, 3060
2600, 3022,  111,  112, 3061
2601,  260, 3023, 3062,  259
2602, 3023, 3024, 3063, 3062
2603, 3024, 3025, 3064, 3063
2604, 3025, 3026, 3065, 3064
2605, 3026, 3027, 3066, 3065
2606, 3027, 3028, 3067, 3066
2607, 3028, 3029, 3068, 3067
2608, 3029, 3030, 3069, 3068
2609, 3030, 3031, 3070, 3069
2610, 3031, 3032, 3071, 3070
2611, 3032, 3033, 3072, 3071
2612, 3033, 3034, 3073, 3072
2613, 3034, 3035, 3074, 3073
2614, 3035, 3036, 3075, 3074
2615, 3036, 3037, 3076, 3075
2616, 3037, 3038, 3077, 3076
2617, 3038, 3039, 3078, 3077
2618, 3039, 3040, 3079, 3078
2619, 3040, 3041, 3080, 3079
2620, 3041, 3042, 3081, 3080
2621, 3042, 3043, 3082, 3081
2622, 3043, 3044, 3083, 3082
2623, 3044, 3045, 3084, 3083
2624, 3045, 3046, 3085, 3084
2625, 3046, 3047, 3086, 3085
2626, 3047, 3048, 3087, 3086
2627, 3048, 3049, 3088, 3087
2628, 3049, 3050, 3089, 3088
2629, 3050, 3051, 3090, 3089
2630, 3051, 3052, 3091, 3090
2631, 3052, 3053, 3092, 3091
2632, 3053, 3054, 3093, 3092
2633, 3054, 3055, 3094, 3093
2634, 3055, 3056, 3095, 3094
2635, 3056, 3057, 3096, 3095
2636, 3057, 3058, 3097, 3096
2637, 3058, 3059, 3098, 3097
2638, 3059, 3060, 3099, 3098
2639, 3060, 3061, 3100, 3099
2640, 3061,  112,  113, 3100
2641,  259, 3062, 3101,  258
2642, 3062, 3063, 3102, 3101
2643, 3063, 3064, 3103, 3102
2644, 3064, 3065, 3104, 3103
2645, 3065, 3066, 3105, 3104
2646, 3066, 3067, 3106, 3105
2647, 3067, 3068, 3107, 3106
2648, 3068, 3069, 3108, 3107
2649, 3069, 3070, 3109, 3108
2650, 3070, 3071, 3110, 3109
2651, 3071, 3072, 3111, 3110
2652, 3072, 3073, 3112, 3111
2653, 3073, 3074, 3113, 3112
2654, 3074, 3075, 3114, 3113
2655, 3075, 3076, 3115, 3114
2656, 3076, 3077, 3116, 3115
2657, 3077, 3078, 3117, 3116
2658, 3078, 3079, 3118, 3117
2659, 3079, 3080, 3119, 3118
2660, 3080, 3081, 3120, 3119
2661, 3081, 3082, 3121, 3120
2662, 3082, 3083, 3122, 3121
2663, 3083, 3084, 3123, 3122
2664, 3084, 3085, 3124, 3123
2665, 3085, 3086, 3125, 3124
2666, 3086, 3087, 3126, 3125
2667, 3087, 3088, 3127, 3126
2668, 3088, 3089, 3128, 3127
2669, 3089, 3090, 3129, 3128
2670, 3090, 3091, 3130, 3129
2671, 3091, 3092, 3131, 3130
2672, 3092, 3093, 3132, 3131
2673, 3093, 3094, 3133, 3132
2674, 3094, 3095, 3134, 3133
2675, 3095, 3096, 3135, 3134
2676, 3096, 3097, 3136, 3135
2677, 3097, 3098, 3137, 3136
2678, 3098, 3099, 3138, 3137
2679, 3099, 3100, 3139, 3138
2680, 3100,  113,  114, 3139
2681,  258, 3101, 3140,  257
2682, 3101, 3102, 3141, 3140
2683, 3102, 3103, 3142, 3141
2684, 3103, 3104, 3143, 3142
2685, 3104, 3105, 3144, 3143
2686, 3105, 3106, 3145, 3144
2687, 3106, 3107, 3146, 3145
2688, 3107, 3108, 3147, 3146
2689, 3108, 3109, 3148, 3147
2690, 3109, 3110, 3149, 3148
2691, 3110, 3111, 3150, 3149
2692, 3111, 3112, 3151, 3150
2693, 3112, 3113, 3152, 3151
2694, 3113, 3114, 3153, 3152
2695, 3114, 3115, 3154, 3153
2696, 3115, 3116, 3155, 3154
2697, 3116, 3117, 3156, 3155
2698, 3117, 3118, 3157, 3156
2699, 3118, 3119, 3158, 3157
2700, 3119, 3120, 3159, 3158
2701, 3120, 3121, 3160, 3159
2702, 3121, 3122, 3161, 3160
2703, 3122, 3123, 3162, 3161
2704, 3123, 3124, 3163, 3162
2705, 3124, 3125, 3164, 3163
2706, 3125, 3126, 3165, 3164
2707, 3126, 3127, 3166, 3165
2708, 3127, 3128, 3167, 3166
2709, 3128, 3129, 3168, 3167
2710, 3129, 3130, 3169, 3168
2711, 3130, 3131, 3170, 3169
2712, 3131, 3132, 3171, 3170
2713, 3132, 3133, 3172, 3171
2714, 3133, 3134, 3173, 3172
2715, 3134, 3135, 3174, 3173
2716, 3135, 3136, 3175, 3174
2717, 3136, 3137, 3176, 3175
2718, 3137, 3138, 3177, 3176
2719, 3138, 3139, 3178, 3177
2720, 3139,  114,  115, 3178
2721,  257, 3140, 3179,  256
2722, 3140, 3141, 3180, 3179
2723, 3141, 3142, 3181, 3180
2724, 3142, 3143, 3182, 3181
2725, 3143, 3144, 3183, 3182
2726, 3144, 3145, 3184, 3183
2727, 3145, 3146, 3185, 3184
2728, 3146, 3147, 3186, 3185
2729, 3147, 3148, 3187, 3186
2730, 3148, 3149, 3188, 3187
2731, 3149, 3150, 3189, 3188
2732, 3150, 3151, 3190, 3189
2733, 3151, 3152, 3191, 3190
2734, 3152, 3153, 3192, 3191
2735, 3153, 3154, 3193, 3192
2736, 3154, 3155, 3194, 3193
2737, 3155, 3156, 3195, 3194
2738, 3156, 3157, 3196, 3195
2739, 3157, 3158, 3197, 3196
2740, 3158, 3159, 3198, 3197
2741, 3159, 3160, 3199, 3198
2742, 3160, 3161, 3200, 3199
2743, 3161, 3162, 3201, 3200
2744, 3162, 3163, 3202, 3201
2745, 3163, 3164, 3203, 3202
2746, 3164, 3165, 3204, 3203
2747, 3165, 3166, 3205, 3204
2748, 3166, 3167, 3206, 3205
2749, 3167, 3168, 3207, 3206
2750, 3168, 3169, 3208, 3207
2751, 3169, 3170, 3209, 3208
2752, 3170, 3171, 3210, 3209
2753, 3171, 3172, 3211, 3210
2754, 3172, 3173, 3212, 3211
2755, 3173, 3174, 3213, 3212
2756, 3174, 3175, 3214, 3213
2757, 3175, 3176, 3215, 3214
2758, 3176, 3177, 3216, 3215
2759, 3177, 3178, 3217, 3216
2760, 3178,  115,  116, 3217
2761,  256, 3179, 3218,  255
2762, 3179, 3180, 3219, 3218
2763, 3180, 3181, 3220, 3219
2764, 3181, 3182, 3221, 3220
2765, 3182, 3183, 3222, 3221
2766, 3183, 3184, 3223, 3222
2767, 3184, 3185, 3224, 3223
2768, 3185, 3186, 3225, 3224
2769, 3186, 3187, 3226, 3225
2770, 3187, 3188, 3227, 3226
2771, 3188, 3189, 3228, 3227
2772, 3189, 3190, 3229, 3228
2773, 3190, 3191, 3230, 3229
2774, 3191, 3192, 3231, 3230
2775, 3192, 3193, 3232, 3231
2776, 3193, 3194, 3233, 3232
2777, 3194, 3195, 3234, 3233
2778, 3195, 3196, 3235, 3234
2779, 3196, 3197, 3236, 3235
2780, 3197, 3198, 3237, 3236
2781, 3198, 3199, 3238, 3237
2782, 3199, 3200, 3239, 3238
2783, 3200, 3201, 3240, 3239
2784, 3201, 3202, 3241, 3240
2785, 3202, 3203, 3242, 3241
2786, 3203, 3204, 3243, 3242
2787, 3204, 3205, 3244, 3243
2788, 3205, 3206, 3245, 3244
2789, 3206, 3207, 3246, 3245
2790, 3207, 3208, 3247, 3246
2791, 3208, 3209, 3248, 3247
2792, 3209, 3210, 3249, 3248
2793, 3210, 3211, 3250, 3249
2794, 3211, 3212, 3251, 3250
2795, 3212, 3213, 3252, 3251
2796, 3213, 3214, 3253, 3252
2797, 3214, 3215, 3254, 3253
2798, 3215, 3216, 3255, 3254
2799, 3216, 3217, 3256, 3255
2800, 3217,  116,  117, 3256
2801,  255, 3218, 3257,  254
2802, 3218, 3219, 3258, 3257
2803, 3219, 3220, 3259, 3258
2804, 3220, 3221, 3260, 3259
2805, 3221, 3222, 3261, 3260
2806, 3222, 3223, 3262, 3261
2807, 3223, 3224, 3263, 3262
2808, 3224, 3225, 3264, 3263
2809, 3225, 3226, 3265, 3264
2810, 3226, 3227, 3266, 3265
2811, 3227, 3228, 3267, 3266
2812, 3228, 3229, 3268, 3267
2813, 3229, 3230, 3269, 3268
2814, 3230, 3231, 3270, 3269
2815, 3231, 3232, 3271, 3270
2816, 3232, 3233, 3272, 3271
2817, 3233, 3234, 3273, 3272
2818, 3234, 3235, 3274, 3273
2819, 3235, 3236, 3275, 3274
2820, 3236, 3237, 3276, 3275
2821, 3237, 3238, 3277, 3276
2822, 3238, 3239, 3278, 3277
2823, 3239, 3240, 3279, 3278
2824, 3240, 3241, 3280, 3279
2825, 3241, 3242, 3281, 3280
2826, 3242, 3243, 3282, 3281
2827, 3243, 3244, 3283, 3282
2828, 3244, 3245, 3284, 3283
2829, 3245, 3246, 3285, 3284
2830, 3246, 3247, 3286, 3285
2831, 3247, 3248, 3287, 3286
2832, 3248, 3249, 3288, 3287
2833, 3249, 3250, 3289, 3288
2834, 3250, 3251, 3290, 3289
2835, 3251, 3252, 3291, 3290
2836, 3252, 3253, 3292, 3291
2837, 3253, 3254, 3293, 3292
2838, 3254, 3255, 3294, 3293
2839, 3255, 3256, 3295, 3294
2840, 3256,  117,  118, 3295
2841,  254, 3257, 3296,  253
2842, 3257, 3258, 3297, 3296
2843, 3258, 3259, 3298, 3297
2844, 3259, 3260, 3299, 3298
2845, 3260, 3261, 3300, 3299
2846, 3261, 3262, 3301, 3300
2847, 3262, 3263, 3302, 3301
2848, 3263, 3264, 3303, 3302
2849, 3264, 3265, 3304, 3303
2850, 3265, 3266, 3305, 3304
2851, 3266, 3267, 3306, 3305
2852, 3267, 3268, 3307, 3306
2853, 3268, 3269, 3308, 3307
2854, 3269, 3270, 3309, 3308
2855, 3270, 3271, 3310, 3309
2856, 3271, 3272, 3311, 3310
2857, 3272, 3273, 3312, 3311
2858, 3273, 3274, 3313, 3312
2859, 3274, 3275, 3314, 3313
2860, 3275, 3276, 3315, 3314
2861, 3276, 3277, 3316, 3315
2862, 3277, 3278, 3317, 3316
2863, 3278, 3279, 3318, 3317
2864, 3279, 3280, 3319, 3318
2865, 3280, 3281, 3320, 3319
2866, 3281, 3282, 3321, 3320
2867, 3282, 3283, 3322, 3321
2868, 3283, 3284, 3323, 3322
2869, 3284, 3285, 3324, 3323
2870, 3285, 3286, 3325, 3324
2871, 3286, 3287, 3326, 3325
2872, 3287, 3288, 3327, 3326
2873, 3288, 3289, 3328, 3327
2874, 3289, 3290, 3329, 3328
2875, 3290, 3291, 3330, 3329
2876, 3291, 3292, 3331, 3330
2877, 3292, 3293, 3332, 3331
2878, 3293, 3294, 3333, 3332
2879, 3294, 3295, 3334, 3333
2880, 3295,  118,  119, 3334
2881,  253, 3296, 3335,  252
2882, 3296, 3297, 3336, 3335
2883, 3297, 3298, 3337, 3336
2884, 3298, 3299, 3338, 3337
2885, 3299, 3300, 3339, 3338
2886, 3300, 3301, 3340, 3339
2887, 3301, 3302, 3341, 3340
2888, 3302, 3303, 3342, 3341
2889, 3303, 3304, 3343, 3342
2890, 3304, 3305, 3344, 3343
2891, 3305, 3306, 3345, 3344
2892, 3306, 3307, 3346, 3345
2893, 3307, 3308, 3347, 3346
2894, 3308, 3309, 3348, 3347
2895, 3309, 3310, 3349, 3348
2896, 3310, 3311, 3350, 3349
2897, 3311, 3312, 3351, 3350
2898, 3312, 3313, 3352, 3351
2899, 3313, 3314, 3353, 3352
2900, 3314, 3315, 3354, 3353
2901, 3315, 3316, 3355, 3354
2902, 3316, 3317, 3356, 3355
2903, 3317, 3318, 3357, 3356
2904, 3318, 3319, 3358, 3357
2905, 3319, 3320, 3359, 3358
2906, 3320, 3321, 3360, 3359
2907, 3321, 3322, 3361, 3360
2908, 3322, 3323, 3362, 3361
2909, 3323, 3324, 3363, 3362
2910, 3324, 3325, 3364, 3363
2911, 3325, 3326, 3365, 3364
2912, 3326, 3327, 3366, 3365
2913, 3327, 3328, 3367, 3366
2914, 3328, 3329, 3368, 3367
2915, 3329, 3330, 3369, 3368
2916, 3330, 3331, 3370, 3369
2917, 3331, 3332, 3371, 3370
2918, 3332, 3333, 3372, 3371
2919, 3333, 3334, 3373, 3372
2920, 3334,  119,  120, 3373
2921,  252, 3335, 3374,  251
2922, 3335, 3336, 3375, 3374
2923, 3336, 3337, 3376, 3375
2924, 3337, 3338, 3377, 3376
2925, 3338, 3339, 3378, 3377
2926, 3339, 3340, 3379, 3378
2927, 3340, 3341, 3380, 3379
2928, 3341, 3342, 3381, 3380
2929, 3342, 3343, 3382, 3381
2930, 3343, 3344, 3383, 3382
2931, 3344, 3345, 3384, 3383
2932, 3345, 3346, 3385, 3384
2933, 3346, 3347, 3386, 3385
2934, 3347, 3348, 3387, 3386
2935, 3348, 3349, 3388, 3387
2936, 3349, 3350, 3389, 3388
2937, 3350, 3351, 3390, 3389
2938, 3351, 3352, 3391, 3390
2939, 3352, 3353, 3392, 3391
2940, 3353, 3354, 3393, 3392
2941, 3354, 3355, 3394, 3393
2942, 3355, 3356, 3395, 3394
2943, 3356, 3357, 3396, 3395
2944, 3357, 3358, 3397, 3396
2945, 3358, 3359, 3398, 3397
2946, 3359, 3360, 3399, 3398
2947, 3360, 3361, 3400, 3399
2948, 3361, 3362, 3401, 3400
2949, 3362, 3363, 3402, 3401
2950, 3363, 3364, 3403, 3402
2951, 3364, 3365, 3404, 3403
2952, 3365, 3366, 3405, 3404
2953, 3366, 3367, 3406, 3405
2954, 3367, 3368, 3407, 3406
2955, 3368, 3369, 3408, 3407
2956, 3369, 3370, 3409, 3408
2957, 3370, 3371, 3410, 3409
2958, 3371, 3372, 3411, 3410
2959, 3372, 3373, 3412, 3411
2960, 3373,  120,  121, 3412
2961,  251, 3374, 3413,  250
2962, 3374, 3375, 3414, 3413
2963, 3375, 3376, 3415, 3414
2964, 3376, 3377, 3416, 3415
2965, 3377, 3378, 3417, 3416
2966, 3378, 3379, 3418, 3417
2967, 3379, 3380, 3419, 3418
2968, 3380, 3381, 3420, 3419
2969, 3381, 3382, 3421, 3420
2970, 3382, 3383, 3422, 3421
2971, 3383, 3384, 3423, 3422
2972, 3384, 3385, 3424, 3423
2973, 3385, 3386, 3425, 3424
2974, 3386, 3387, 3426, 3425
2975, 3387, 3388, 3427, 3426
2976, 3388, 3389, 3428, 3427
2977, 3389, 3390, 3429, 3428
2978, 3390, 3391, 3430, 3429
2979, 3391, 3392, 3431, 3430
2980, 3392, 3393, 3432, 3431
2981, 3393, 3394, 3433, 3432
2982, 3394, 3395, 3434, 3433
2983, 3395, 3396, 3435, 3434
2984, 3396, 3397, 3436, 3435
2985, 3397, 3398, 3437, 3436
2986, 3398, 3399, 3438, 3437
2987, 3399, 3400, 3439, 3438
2988, 3400, 3401, 3440, 3439
2989, 3401, 3402, 3441, 3440
2990, 3402, 3403, 3442, 3441
2991, 3403, 3404, 3443, 3442
2992, 3404, 3405, 3444, 3443
2993, 3405, 3406, 3445, 3444
2994, 3406, 3407, 3446, 3445
2995, 3407, 3408, 3447, 3446
2996, 3408, 3409, 3448, 3447
2997, 3409, 3410, 3449, 3448
2998, 3410, 3411, 3450, 3449
2999, 3411, 3412, 3451, 3450
3000, 3412,  121,  122, 3451
3001,  250, 3413, 3452,  249
3002, 3413, 3414, 3453, 3452
3003, 3414, 3415, 3454, 3453
3004, 3415, 3416, 3455, 3454
3005, 3416, 3417, 3456, 3455
3006, 3417, 3418, 3457, 3456
3007, 3418, 3419, 3458, 3457
3008, 3419, 3420, 3459, 3458
3009, 3420, 3421, 3460, 3459
3010, 3421, 3422, 3461, 3460
3011, 3422, 3423, 3462, 3461
3012, 3423, 3424, 3463, 3462
3013, 3424, 3425, 3464, 3463
3014, 3425, 3426, 3465, 3464
3015, 3426, 3427, 3466, 3465
3016, 3427, 3428, 3467, 3466
3017, 3428, 3429, 3468, 3467
3018, 3429, 3430, 3469, 3468
3019, 3430, 3431, 3470, 3469
3020, 3431, 3432, 3471, 3470
3021, 3432, 3433, 3472, 3471
3022, 3433, 3434, 3473, 3472
3023, 3434, 3435, 3474, 3473
3024, 3435, 3436, 3475, 3474
3025, 3436, 3437, 3476, 3475
3026, 3437, 3438, 3477, 3476
3027, 3438, 3439, 3478, 3477
3028, 3439, 3440, 3479, 3478
3029, 3440, 3441, 3480, 3479
3030, 3441, 3442, 3481, 3480
3031, 3442, 3443, 3482, 3481
3032, 3443, 3444, 3483, 3482
3033, 3444, 3445, 3484, 3483
3034, 3445, 3446, 3485, 3484
3035, 3446, 3447, 3486, 3485
3036, 3447, 3448, 3487, 3486
3037, 3448, 3449, 3488, 3487
3038, 3449, 3450, 3489, 3488
3039, 3450, 3451, 3490, 3489
3040, 3451,  122,  123, 3490
3041,  249, 3452, 3491,  248
3042, 3452, 3453, 3492, 3491
3043, 3453, 3454, 3493, 3492
3044, 3454, 3455, 3494, 3493
3045, 3455, 3456, 3495, 3494
3046, 3456, 3457, 3496, 3495
3047, 3457, 3458, 3497, 3496
3048, 3458, 3459, 3498, 3497
3049, 3459, 3460, 3499, 3498
3050, 3460, 3461, 3500, 3499
3051, 3461, 3462, 3501, 3500
3052, 3462, 3463, 3502, 3501
3053, 3463, 3464, 3503, 3502
3054, 3464, 3465, 3504, 3503
3055, 3465, 3466, 3505, 3504
3056, 3466, 3467, 3506, 3505
3057, 3467, 3468, 3507, 3506
3058, 3468, 3469, 3508, 3507
3059, 3469, 3470, 3509, 3508
3060, 3470, 3471, 3510, 3509
3061, 3471, 3472, 3511, 3510
3062, 3472, 3473, 3512, 3511
3063, 3473, 3474, 3513, 3512
3064, 3474, 3475, 3514, 3513
3065, 3475, 3476, 3515, 3514
3066, 3476, 3477, 3516, 3515
3067, 3477, 3478, 3517, 3516
3068, 3478, 3479, 3518, 3517
3069, 3479, 3480, 3519, 3518
3070, 3480, 3481, 3520, 3519
3071, 3481, 3482, 3521, 3520
3072, 3482, 3483, 3522, 3521
3073, 3483, 3484, 3523, 3522
3074, 3484, 3485, 3524, 3523
3075, 3485, 3486, 3525, 3524
3076, 3486, 3487, 3526, 3525
3077, 3487, 3488, 3527, 3526
3078, 3488, 3489, 3528, 3527
3079, 3489, 3490, 3529, 3528
3080, 3490,  123,  124, 3529
3081,  248, 3491, 3530,  247
3082, 3491, 3492, 3531, 3530
3083, 3492, 3493, 3532, 3531
3084, 3493, 3494, 3533, 3532
3085, 3494, 3495, 3534, 3533
3086, 3495, 3496, 3535, 3534
3087, 3496, 3497, 3536, 3535
3088, 3497, 3498, 3537, 3536
3089, 3498, 3499, 3538, 3537
3090, 3499, 3500, 3539, 3538
3091, 3500, 3501, 3540, 3539
3092, 3501, 3502, 3541, 3540
3093, 3502, 3503, 3542, 3541
3094, 3503, 3504, 3543, 3542
3095, 3504, 3505, 3544, 3543
3096, 3505, 3506, 3545, 3544
3097, 3506, 3507, 3546, 3545
3098, 3507, 3508, 3547, 3546
3099, 3508, 3509, 3548, 3547
3100, 3509, 3510, 3549, 3548
3101, 3510, 3511, 3550, 3549
3102, 3511, 3512, 3551, 3550
3103, 3512, 3513, 3552, 3551
3104, 3513, 3514, 3553, 3552
3105, 3514, 3515, 3554, 3553
3106, 3515, 3516, 3555, 3554
3107, 3516, 3517, 3556, 3555
3108, 3517, 3518, 3557, 3556
3109, 3518, 3519, 3558, 3557
3110, 3519, 3520, 3559, 3558
3111, 3520, 3521, 3560, 3559
3112, 3521, 3522, 3561, 3560
3113, 3522, 3523, 3562, 3561
3114, 3523, 3524, 3563, 3562
3115, 3524, 3525, 3564, 3563
3116, 3525, 3526, 3565, 3564
3117, 3526, 3527, 3566, 3565
3118, 3527, 3528, 3567, 3566
3119, 3528, 3529, 3568, 3567
3120, 3529,  124,  125, 3568
3121,  247, 3530, 3569,  246
3122, 3530, 3531, 3570, 3569
3123, 3531, 3532, 3571, 3570
3124, 3532, 3533, 3572, 3571
3125, 3533, 3534, 3573, 3572
3126, 3534, 3535, 3574, 3573
3127, 3535, 3536, 3575, 3574
3128, 3536, 3537, 3576, 3575
3129, 3537, 3538, 3577, 3576
3130, 3538, 3539, 3578, 3577
3131, 3539, 3540, 3579, 3578
3132, 3540, 3541, 3580, 3579
3133, 3541, 3542, 3581, 3580
3134, 3542, 3543, 3582, 3581
3135, 3543, 3544, 3583, 3582
3136, 3544, 3545, 3584, 3583
3137, 3545, 3546, 3585, 3584
3138, 3546, 3547, 3586, 3585
3139, 3547, 3548, 3587, 3586
3140, 3548, 3549, 3588, 3587
3141, 3549, 3550, 3589, 3588
3142, 3550, 3551, 3590, 3589
3143, 3551, 3552, 3591, 3590
3144, 3552, 3553, 3592, 3591
3145, 3553, 3554, 3593, 3592
3146, 3554, 3555, 3594, 3593
3147, 3555, 3556, 3595, 3594
3148, 3556, 3557, 3596, 3595
3149, 3557, 3558, 3597, 3596
3150, 3558, 3559, 3598, 3597
3151, 3559, 3560, 3599, 3598
3152, 3560, 3561, 3600, 3599
3153, 3561, 3562, 3601, 3600
3154, 3562, 3563, 3602, 3601
3155, 3563, 3564, 3603, 3602
3156, 3564, 3565, 3604, 3603
3157, 3565, 3566, 3605, 3604
3158, 3566, 3567, 3606, 3605
3159, 3567, 3568, 3607, 3606
3160, 3568,  125,  126, 3607
3161,  246, 3569, 3608,  245
3162, 3569, 3570, 3609, 3608
3163, 3570, 3571, 3610, 3609
3164, 3571, 3572, 3611, 3610
3165, 3572, 3573, 3612, 3611
3166, 3573, 3574, 3613, 3612
3167, 3574, 3575, 3614, 3613
3168, 3575, 3576, 3615, 3614
3169, 3576, 3577, 3616, 3615
3170, 3577, 3578, 3617, 3616
3171, 3578, 3579, 3618, 3617
3172, 3579, 3580, 3619, 3618
3173, 3580, 3581, 3620, 3619
3174, 3581, 3582, 3621, 3620
3175, 3582, 3583, 3622, 3621
3176, 3583, 3584, 3623, 3622
3177, 3584, 3585, 3624, 3623
3178, 3585, 3586, 3625, 3624
3179, 3586, 3587, 3626, 3625
3180, 3587, 3588, 3627, 3626
3181, 3588, 3589, 3628, 3627
3182, 3589, 3590, 3629, 3628
3183, 3590, 3591, 3630, 3629
3184, 3591, 3592, 3631, 3630
3185, 3592, 3593, 3632, 3631
3186, 3593, 3594, 3633, 3632
3187, 3594, 3595, 3634, 3633
3188, 3595, 3596, 3635, 3634
3189, 3596, 3597, 3636, 3635
3190, 3597, 3598, 3637, 3636
3191, 3598, 3599, 3638, 3637
3192, 3599, 3600, 3639, 3638
3193, 3600, 3601, 3640, 3639
3194, 3601, 3602, 3641, 3640
3195, 3602, 3603, 3642, 3641
3196, 3603, 3604, 3643, 3642
3197, 3604, 3605, 3644, 3643
3198, 3605, 3606, 3645, 3644
3199, 3606, 3607, 3646, 3645
3200, 3607,  126,  127, 3646
3201,  245, 3608, 3647,  244
3202, 3608, 3609, 3648, 3647
3203, 3609, 3610, 3649, 3648
3204, 3610, 3611, 3650, 3649
3205, 3611, 3612, 3651, 3650
3206, 3612, 3613, 3652, 3651
3207, 3613, 3614, 3653, 3652
3208, 3614, 3615, 3654, 3653
3209, 3615, 3616, 3655, 3654
3210, 3616, 3617, 3656, 3655
3211, 3617, 3618, 3657, 3656
3212, 3618, 3619, 3658, 3657
3213, 3619, 3620, 3659, 3658
3214, 3620, 3621, 3660, 3659
3215, 3621, 3622, 3661, 3660
3216, 3622, 3623, 3662, 3661
3217, 3623, 3624, 3663, 3662
3218, 3624, 3625, 3664, 3663
3219, 3625, 3626, 3665, 3664
3220, 3626, 3627, 3666, 3665
3221, 3627, 3628, 3667, 3666
3222, 3628, 3629, 3668, 3667
3223, 3629, 3630, 3669, 3668
3224, 3630, 3631, 3670, 3669
3225, 3631, 3632, 3671, 3670
3226, 3632, 3633, 3672, 3671
3227, 3633, 3634, 3673, 3672
3228, 3634, 3635, 3674, 3673
3229, 3635, 3636, 3675, 3674
3230, 3636, 3637, 3676, 3675
3231, 3637, 3638, 3677, 3676
3232, 3638, 3639, 3678, 3677
3233, 3639, 3640, 3679, 3678
3234, 3640, 3641, 3680, 3679
3235, 3641, 3642, 3681, 3680
3236, 3642, 3643, 3682, 3681
3237, 3643, 3644, 3683, 3682
3238, 3644, 3645, 3684, 3683
3239, 3645, 3646, 3685, 3684
3240, 3646,  127,  128, 3685
3241,  244, 3647, 3686,  243
3242, 3647, 3648, 3687, 3686
3243, 3648, 3649, 3688, 3687
3244, 3649, 3650, 3689, 3688
3245, 3650, 3651, 3690, 3689
3246, 3651, 3652, 3691, 3690
3247, 3652, 3653, 3692, 3691
3248, 3653, 3654, 3693, 3692
3249, 3654, 3655, 3694, 3693
3250, 3655, 3656, 3695, 3694
3251, 3656, 3657, 3696, 3695
3252, 3657, 3658, 3697, 3696
3253, 3658, 3659, 3698, 3697
3254, 3659, 3660, 3699, 3698
3255, 3660, 3661, 3700, 3699
3256, 3661, 3662, 3701, 3700
3257, 3662, 3663, 3702, 3701
3258, 3663, 3664, 3703, 3702
3259, 3664, 3665, 3704, 3703
3260, 3665, 3666, 3705, 3704
3261, 3666, 3667, 3706, 3705
3262, 3667, 3668, 3707, 3706
3263, 3668, 3669, 3708, 3707
3264, 3669, 3670, 3709, 3708
3265, 3670, 3671, 3710, 3709
3266, 3671, 3672, 3711, 3710
3267, 3672, 3673, 3712, 3711
3268, 3673, 3674, 3713, 3712
3269, 3674, 3675, 3714, 3713
3270, 3675, 3676, 3715, 3714
3271, 3676, 3677, 3716, 3715
3272, 3677, 3678, 3717, 3716
3273, 3678, 3679, 3718, 3717
3274, 3679, 3680, 3719, 3718
3275, 3680, 3681, 3720, 3719
3276, 3681, 3682, 3721, 3720
3277, 3682, 3683, 3722, 3721
3278, 3683, 3684, 3723, 3722
3279, 3684, 3685, 3724, 3723
3280, 3685,  128,  129, 3724
3281,  243, 3686, 3725,  242
3282, 3686, 3687, 3726, 3725
3283, 3687, 3688, 3727, 3726
3284, 3688, 3689, 3728, 3727
3285, 3689, 3690, 3729, 3728
3286, 3690, 3691, 3730, 3729
3287, 3691, 3692, 3731, 3730
3288, 3692, 3693, 3732, 3731
3289, 3693, 3694, 3733, 3732
3290, 3694, 3695, 3734, 3733
3291, 3695, 3696, 3735, 3734
3292, 3696, 3697, 3736, 3735
3293, 3697, 3698, 3737, 3736
3294, 3698, 3699, 3738, 3737
3295, 3699, 3700, 3739, 3738
3296, 3700, 3701, 3740, 3739
3297, 3701, 3702, 3741, 3740
3298, 3702, 3703, 3742, 3741
3299, 3703, 3704, 3743, 3742
3300, 3704, 3705, 3744, 3743
3301, 3705, 3706, 3745, 3744
3302, 3706, 3707, 3746, 3745
3303, 3707, 3708, 3747, 3746
3304, 3708, 3709, 3748, 3747
3305, 3709, 3710, 3749, 3748
3306, 3710, 3711, 3750, 3749
3307, 3711, 3712, 3751, 3750
3308, 3712, 3713, 3752, 3751
3309, 3713, 3714, 3753, 3752
3310, 3714, 3715, 3754, 3753
3311, 3715, 3716, 3755, 3754
3312, 3716, 3717, 3756, 3755
3313, 3717, 3718, 3757, 3756
3314, 3718, 3719, 3758, 3757
3315, 3719, 3720, 3759, 3758
3316, 3720, 3721, 3760, 3759
3317, 3721, 3722, 3761, 3760
3318, 3722, 3723, 3762, 3761
3319, 3723, 3724, 3763, 3762
3320, 3724,  129,  130, 3763
3321,  242, 3725, 3764,  241
3322, 3725, 3726, 3765, 3764
3323, 3726, 3727, 3766, 3765
3324, 3727, 3728, 3767, 3766
3325, 3728, 3729, 3768, 3767
3326, 3729, 3730, 3769, 3768
3327, 3730, 3731, 3770, 3769
3328, 3731, 3732, 3771, 3770
3329, 3732, 3733, 3772, 3771
3330, 3733, 3734, 3773, 3772
3331, 3734, 3735, 3774, 3773
3332, 3735, 3736, 3775, 3774
3333, 3736, 3737, 3776, 3775
3334, 3737, 3738, 3777, 3776
3335, 3738, 3739, 3778, 3777
3336, 3739, 3740, 3779, 3778
3337, 3740, 3741, 3780, 3779
3338, 3741, 3742, 3781, 3780
3339, 3742, 3743, 3782, 3781
3340, 3743, 3744, 3783, 3782
3341, 3744, 3745, 3784, 3783
3342, 3745, 3746, 3785, 3784
3343, 3746, 3747, 3786, 3785
3344, 3747, 3748, 3787, 3786
3345, 3748, 3749, 3788, 3787
3346, 3749, 3750, 3789, 3788
3347, 3750, 3751, 3790, 3789
3348, 3751, 3752, 3791, 3790
3349, 3752, 3753, 3792, 3791
3350, 3753, 3754, 3793, 3792
3351, 3754, 3755, 3794, 3793
3352, 3755, 3756, 3795, 3794
3353, 3756, 3757, 3796, 3795
3354, 3757, 3758, 3797, 3796
3355, 3758, 3759, 3798, 3797
3356, 3759, 3760, 3799, 3798
3357, 3760, 3761, 3800, 3799
3358, 3761, 3762, 3801, 3800
3359, 3762, 3763, 3802, 3801
3360, 3763,  130,  131, 3802
3361,  241, 3764, 3803,  240
3362, 3764, 3765, 3804, 3803
3363, 3765, 3766, 3805, 3804
3364, 3766, 3767, 3806, 3805
3365, 3767, 3768, 3807, 3806
3366, 3768, 3769, 3808, 3807
3367, 3769, 3770, 3809, 3808
3368, 3770, 3771, 3810, 3809
3369, 3771, 3772, 3811, 3810
3370, 3772, 3773, 3812, 3811
3371, 3773, 3774, 3813, 3812
3372, 3774, 3775, 3814, 3813
3373, 3775, 3776, 3815, 3814
3374, 3776, 3777, 3816, 3815
3375, 3777, 3778, 3817, 3816
3376, 3778, 3779, 3818, 3817
3377, 3779, 3780, 3819, 3818
3378, 3780, 3781, 3820, 3819
3379, 3781, 3782, 3821, 3820
3380, 3782, 3783, 3822, 3821
3381, 3783, 3784, 3823, 3822
3382, 3784, 3785, 3824, 3823
3383, 3785, 3786, 3825, 3824
3384, 3786, 3787, 3826, 3825
3385, 3787, 3788, 3827, 3826
3386, 3788, 3789, 3828, 3827
3387, 3789, 3790, 3829, 3828
3388, 3790, 3791, 3830, 3829
3389, 3791, 3792, 3831, 3830
3390, 3792, 3793, 3832, 3831
3391, 3793, 3794, 3833, 3832
3392, 3794, 3795, 3834, 3833
3393, 3795, 3796, 3835, 3834
3394, 3796, 3797, 3836, 3835
3395, 3797, 3798, 3837, 3836
3396, 3798, 3799, 3838, 3837
3397, 3799, 3800, 3839, 3838
3398, 3800, 3801, 3840, 3839
3399, 3801, 3802, 3841, 3840
3400, 3802,  131,  132, 3841
3401,  240, 3803, 3842,  239
3402, 3803, 3804, 3843, 3842
3403, 3804, 3805, 3844, 3843
3404, 3805, 3806, 3845, 3844
3405, 3806, 3807, 3846, 3845
3406, 3807, 3808, 3847, 3846
3407, 3808, 3809, 3848, 3847
3408, 3809, 3810, 3849, 3848
3409, 3810, 3811, 3850, 3849
3410, 3811, 3812, 3851, 3850
3411, 3812, 3813, 3852, 3851
3412, 3813, 3814, 3853, 3852
3413, 3814, 3815, 3854, 3853
3414, 3815, 3816, 3855, 3854
3415, 3816, 3817, 3856, 3855
3416, 3817, 3818, 3857, 3856
3417, 3818, 3819, 3858, 3857
3418, 3819, 3820, 3859, 3858
3419, 3820, 3821, 3860, 3859
3420, 3821, 3822, 3861, 3860
3421, 3822, 3823, 3862, 3861
3422, 3823, 3824, 3863, 3862
3423, 3824, 3825, 3864, 3863
3424, 3825, 3826, 3865, 3864
3425, 3826, 3827, 3866, 3865
3426, 3827, 3828, 3867, 3866
3427, 3828, 3829, 3868, 3867
3428, 3829, 3830, 3869, 3868
3429, 3830, 3831, 3870, 3869
3430, 3831, 3832, 3871, 3870
3431, 3832, 3833, 3872, 3871
3432, 3833, 3834, 3873, 3872
3433, 3834, 3835, 3874, 3873
3434, 3835, 3836, 3875, 3874
3435, 3836, 3837, 3876, 3875
3436, 3837, 3838, 3877, 3876
3437, 3838, 3839, 3878, 3877
3438, 3839, 3840, 3879, 3878
3439, 3840, 3841, 3880, 3879
3440, 3841,  132,  133, 3880
3441,  239, 3842, 3881,  238
3442, 3842, 3843, 3882, 3881
3443, 3843, 3844, 3883, 3882
3444, 3844, 3845, 3884, 3883
3445, 3845, 3846, 3885, 3884
3446, 3846, 3847, 3886, 3885
3447, 3847, 3848, 3887, 3886
3448, 3848, 3849, 3888, 3887
3449, 3849, 3850, 3889, 3888
3450, 3850, 3851, 3890, 3889
3451, 3851, 3852, 3891, 3890
3452, 3852, 3853, 3892, 3891
3453, 3853, 3854, 3893, 3892
3454, 3854, 3855, 3894, 3893
3455, 3855, 3856, 3895, 3894
3456, 3856, 3857, 3896, 3895
3457, 3857, 3858, 3897, 3896
3458, 3858, 3859, 3898, 3897
3459, 3859, 3860, 3899, 3898
3460, 3860, 3861, 3900, 3899
3461, 3861, 3862, 3901, 3900
3462, 3862, 3863, 3902, 3901
3463, 3863, 3864, 3903, 3902
3464, 3864, 3865, 3904, 3903
3465, 3865, 3866, 3905, 3904
3466, 3866, 3867, 3906, 3905
3467, 3867, 3868, 3907, 3906
3468, 3868, 3869, 3908, 3907
3469, 3869, 3870, 3909, 3908
3470, 3870, 3871, 3910, 3909
3471, 3871, 3872, 3911, 3910
3472, 3872, 3873, 3912, 3911
3473, 3873, 3874, 3913, 3912
3474, 3874, 3875, 3914, 3913
3475, 3875, 3876, 3915, 3914
3476, 3876, 3877, 3916, 3915
3477, 3877, 3878, 3917, 3916
3478, 3878, 3879, 3918, 3917
3479, 3879, 3880, 3919, 3918
3480, 3880,  133,  134, 3919
3481,  238, 3881, 3920,  237
3482, 3881, 3882, 3921, 3920
3483, 3882, 3883, 3922, 3921
3484, 3883, 3884, 3923, 3922
3485, 3884, 3885, 3924, 3923
3486, 3885, 3886, 3925, 3924
3487, 3886, 3887, 3926, 3925
3488, 3887, 3888, 3927, 3926
3489, 3888, 3889, 3928, 3927
3490, 3889, 3890, 3929, 3928
3491, 3890, 3891, 3930, 3929
3492, 3891, 3892, 3931, 3930
3493, 3892, 3893, 3932, 3931
3494, 3893, 3894, 3933, 3932
3495, 3894, 3895, 3934, 3933
3496, 3895, 3896, 3935, 3934
3497, 3896, 3897, 3936, 3935
3498, 3897, 3898, 3937, 3936
3499, 3898, 3899, 3938, 3937
3500, 3899, 3900, 3939, 3938
3501, 3900, 3901, 3940, 3939
3502, 3901, 3902, 3941, 3940
3503, 3902, 3903, 3942, 3941
3504, 3903, 3904, 3943, 3942
3505, 3904, 3905, 3944, 3943
3506, 3905, 3906, 3945, 3944
3507, 3906, 3907, 3946, 3945
3508, 3907, 3908, 3947, 3946
3509, 3908, 3909, 3948, 3947
3510, 3909, 3910, 3949, 3948
3511, 3910, 3911, 3950, 3949
3512, 3911, 3912, 3951, 3950
3513, 3912, 3913, 3952, 3951
3514, 3913, 3914, 3953, 3952
3515, 3914, 3915, 3954, 3953
3516, 3915, 3916, 3955, 3954
3517, 3916, 3917, 3956, 3955
3518, 3917, 3918, 3957, 3956
3519, 3918, 3919, 3958, 3957
3520, 3919,  134,  135, 3958
3521,  237, 3920, 3959,  236
3522, 3920, 3921, 3960, 3959
3523, 3921, 3922, 3961, 3960
3524, 3922, 3923, 3962, 3961
3525, 3923, 3924, 3963, 3962
3526, 3924, 3925, 3964, 3963
3527, 3925, 3926, 3965, 3964
3528, 3926, 3927, 3966, 3965
3529, 3927, 3928, 3967, 3966
3530, 3928, 3929, 3968, 3967
3531, 3929, 3930, 3969, 3968
3532, 3930, 3931, 3970, 3969
3533, 3931, 3932, 3971, 3970
3534, 3932, 3933, 3972, 3971
3535, 3933, 3934, 3973, 3972
3536, 3934, 3935, 3974, 3973
3537, 3935, 3936, 3975, 3974
3538, 3936, 3937, 3976, 3975
3539, 3937, 3938, 3977, 3976
3540, 3938, 3939, 3978, 3977
3541, 3939, 3940, 3979, 3978
3542, 3940, 3941, 3980, 3979
3543, 3941, 3942, 3981, 3980
3544, 3942, 3943, 3982, 3981
3545, 3943, 3944, 3983, 3982
3546, 3944, 3945, 3984, 3983
3547, 3945, 3946, 3985, 3984
3548, 3946, 3947, 3986, 3985
3549, 3947, 3948, 3987, 3986
3550, 3948, 3949, 3988, 3987
3551, 3949, 3950, 3989, 3988
3552, 3950, 3951, 3990, 3989
3553, 3951, 3952, 3991, 3990
3554, 3952, 3953, 3992, 3991
3555, 3953, 3954, 3993, 3992
3556, 3954, 3955, 3994, 3993
3557, 3955, 3956, 3995, 3994
3558, 3956, 3957, 3996, 3995
3559, 3957, 3958, 3997, 3996
3560, 3958,  135,  136, 3997
3561,  236, 3959, 3998,  235
3562, 3959, 3960, 3999, 3998
3563, 3960, 3961, 4000, 3999
3564, 3961, 3962, 4001, 4000
3565, 3962, 3963, 4002, 4001
3566, 3963, 3964, 4003, 4002
3567, 3964, 3965, 4004, 4003
3568, 3965, 3966, 4005, 4004
3569, 3966, 3967, 4006, 4005
3570, 3967, 3968, 4007, 4006
3571, 3968, 3969, 4008, 4007
3572, 3969, 3970, 4009, 4008
3573, 3970, 3971, 4010, 4009
3574, 3971, 3972, 4011, 4010
3575, 3972, 3973, 4012, 4011
3576, 3973, 3974, 4013, 4012
3577, 3974, 3975, 4014, 4013
3578, 3975, 3976, 4015, 4014
3579, 3976, 3977, 4016, 4015
3580, 3977, 3978, 4017, 4016
3581, 3978, 3979, 4018, 4017
3582, 3979, 3980, 4019, 4018
3583, 3980, 3981, 4020, 4019
3584, 3981, 3982, 4021, 4020
3585, 3982, 3983, 4022, 4021
3586, 3983, 3984, 4023, 4022
3587, 3984, 3985, 4024, 4023
3588, 3985, 3986, 4025, 4024
3589, 3986, 3987, 4026, 4025
3590, 3987, 3988, 4027, 4026
3591, 3988, 3989, 4028, 4027
3592, 3989, 3990, 4029, 4028
3593, 3990, 3991, 4030, 4029
3594, 3991, 3992, 4031, 4030
3595, 3992, 3993, 4032, 4031
3596, 3993, 3994, 4033, 4032
3597, 3994, 3995, 4034, 4033
3598, 3995, 3996, 4035, 4034
3599, 3996, 3997, 4036, 4035
3600, 3997,  136,  137, 4036
3601,  235, 3998, 4037,  234
3602, 3998, 3999, 4038, 4037
3603, 3999, 4000, 4039, 4038
3604, 4000, 4001, 4040, 4039
3605, 4001, 4002, 4041, 4040
3606, 4002, 4003, 4042, 4041
3607, 4003, 4004, 4043, 4042
3608, 4004, 4005, 4044, 4043
3609, 4005, 4006, 4045, 4044
3610, 4006, 4007, 4046, 4045
3611, 4007, 4008, 4047, 4046
3612, 4008, 4009, 4048, 4047
3613, 4009, 4010, 4049, 4048
3614, 4010, 4011, 4050, 4049
3615, 4011, 4012, 4051, 4050
3616, 4012, 4013, 4052, 4051
3617, 4013, 4014, 4053, 4052
3618, 4014, 4015, 4054, 4053
3619, 4015, 4016, 4055, 4054
3620, 4016, 4017, 4056, 4055
3621, 4017, 4018, 4057, 4056
3622, 4018, 4019, 4058, 4057
3623, 4019, 4020, 4059, 4058
3624, 4020, 4021, 4060, 4059
3625, 4021, 4022, 4061, 4060
3626, 4022, 4023, 4062, 4061
3627, 4023, 4024, 4063, 4062
3628, 4024, 4025, 4064, 4063
3629, 4025, 4026, 4065, 4064
3630, 4026, 4027, 4066, 4065
3631, 4027, 4028, 4067, 4066
3632, 4028, 4029, 4068, 4067
3633, 4029, 4030, 4069, 4068
3634, 4030, 4031, 4070, 4069
3635, 4031, 4032, 4071, 4070
3636, 4032, 4033, 4072, 4071
3637, 4033, 4034, 4073, 4072
3638, 4034, 4035, 4074, 4073
3639, 4035, 4036, 4075, 4074
3640, 4036,  137,  138, 4075
3641,  234, 4037, 4076,  233
3642, 4037, 4038, 4077, 4076
3643, 4038, 4039, 4078, 4077
3644, 4039, 4040, 4079, 4078
3645, 4040, 4041, 4080, 4079
3646, 4041, 4042, 4081, 4080
3647, 4042, 4043, 4082, 4081
3648, 4043, 4044, 4083, 4082
3649, 4044, 4045, 4084, 4083
3650, 4045, 4046, 4085, 4084
3651, 4046, 4047, 4086, 4085
3652, 4047, 4048, 4087, 4086
3653, 4048, 4049, 4088, 4087
3654, 4049, 4050, 4089, 4088
3655, 4050, 4051, 4090, 4089
3656, 4051, 4052, 4091, 4090
3657, 4052, 4053, 4092, 4091
3658, 4053, 4054, 4093, 4092
3659, 4054, 4055, 4094, 4093
3660, 4055, 4056, 4095, 4094
3661, 4056, 4057, 4096, 4095
3662, 4057, 4058, 4097, 4096
3663, 4058, 4059, 4098, 4097
3664, 4059, 4060, 4099, 4098
3665, 4060, 4061, 4100, 4099
3666, 4061, 4062, 4101, 4100
3667, 4062, 4063, 4102, 4101
3668, 4063, 4064, 4103, 4102
3669, 4064, 4065, 4104, 4103
3670, 4065, 4066, 4105, 4104
3671, 4066, 4067, 4106, 4105
3672, 4067, 4068, 4107, 4106
3673, 4068, 4069, 4108, 4107
3674, 4069, 4070, 4109, 4108
3675, 4070, 4071, 4110, 4109
3676, 4071, 4072, 4111, 4110
3677, 4072, 4073, 4112, 4111
3678, 4073, 4074, 4113, 4112
3679, 4074, 4075, 4114, 4113
3680, 4075,  138,  139, 4114
3681,  233, 4076, 4115,  232
3682, 4076, 4077, 4116, 4115
3683, 4077, 4078, 4117, 4116
3684, 4078, 4079, 4118, 4117
3685, 4079, 4080, 4119, 4118
3686, 4080, 4081, 4120, 4119
3687, 4081, 4082, 4121, 4120
3688, 4082, 4083, 4122, 4121
3689, 4083, 4084, 4123, 4122
3690, 4084, 4085, 4124, 4123
3691, 4085, 4086, 4125, 4124
3692, 4086, 4087, 4126, 4125
3693, 4087, 4088, 4127, 4126
3694, 4088, 4089, 4128, 4127
3695, 4089, 4090, 4129, 4128
3696, 4090, 4091, 4130, 4129
3697, 4091, 4092, 4131, 4130
3698, 4092, 4093, 4132, 4131
3699, 4093, 4094, 4133, 4132
3700, 4094, 4095, 4134, 4133
3701, 4095, 4096, 4135, 4134
3702, 4096, 4097, 4136, 4135
3703, 4097, 4098, 4137, 4136
3704, 4098, 4099, 4138, 4137
3705, 4099, 4100, 4139, 4138
3706, 4100, 4101, 4140, 4139
3707, 4101, 4102, 4141, 4140
3708, 4102, 4103, 4142, 4141
3709, 4103, 4104, 4143, 4142
3710, 4104, 4105, 4144, 4143
3711, 4105, 4106, 4145, 4144
3712, 4106, 4107, 4146, 4145
3713, 4107, 4108, 4147, 4146
3714, 4108, 4109, 4148, 4147
3715, 4109, 4110, 4149, 4148
3716, 4110, 4111, 4150, 4149
3717, 4111, 4112, 4151, 4150
3718, 4112, 4113, 4152, 4151
3719, 4113, 4114, 4153, 4152
3720, 4114,  139,  140, 4153
3721,  232, 4115, 4154,  231
3722, 4115, 4116, 4155, 4154
3723, 4116, 4117, 4156, 4155
3724, 4117, 4118, 4157, 4156
3725, 4118, 4119, 4158, 4157
3726, 4119, 4120, 4159, 4158
3727, 4120, 4121, 4160, 4159
3728, 4121, 4122, 4161, 4160
3729, 4122, 4123, 4162, 4161
3730, 4123, 4124, 4163, 4162
3731, 4124, 4125, 4164, 4163
3732, 4125, 4126, 4165, 4164
3733, 4126, 4127, 4166, 4165
3734, 4127, 4128, 4167, 4166
3735, 4128, 4129, 4168, 4167
3736, 4129, 4130, 4169, 4168
3737, 4130, 4131, 4170, 4169
3738, 4131, 4132, 4171, 4170
3739, 4132, 4133, 4172, 4171
3740, 4133, 4134, 4173, 4172
3741, 4134, 4135, 4174, 4173
3742, 4135, 4136, 4175, 4174
3743, 4136, 4137, 4176, 4175
3744, 4137, 4138, 4177, 4176
3745, 4138, 4139, 4178, 4177
3746, 4139, 4140, 4179, 4178
3747, 4140, 4141, 4180, 4179
3748, 4141, 4142, 4181, 4180
3749, 4142, 4143, 4182, 4181
3750, 4143, 4144, 4183, 4182
3751, 4144, 4145, 4184, 4183
3752, 4145, 4146, 4185, 4184
3753, 4146, 4147, 4186, 4185
3754, 4147, 4148, 4187, 4186
3755, 4148, 4149, 4188, 4187
3756, 4149, 4150, 4189, 4188
3757, 4150, 4151, 4190, 4189
3758, 4151, 4152, 4191, 4190
3759, 4152, 4153, 4192, 4191
3760, 4153,  140,  141, 4192
3761,  231, 4154, 4193,  230
3762, 4154, 4155, 4194, 4193
3763, 4155, 4156, 4195, 4194
3764, 4156, 4157, 4196, 4195
3765, 4157, 4158, 4197, 4196
3766, 4158, 4159, 4198, 4197
3767, 4159, 4160, 4199, 4198
3768, 4160, 4161, 4200, 4199
3769, 4161, 4162, 4201, 4200
3770, 4162, 4163, 4202, 4201
3771, 4163, 4164, 4203, 4202
3772, 4164, 4165, 4204, 4203
3773, 4165, 4166, 4205, 4204
3774, 4166, 4167, 4206, 4205
3775, 4167, 4168, 4207, 4206
3776, 4168, 4169, 4208, 4207
3777, 4169, 4170, 4209, 4208
3778, 4170, 4171, 4210, 4209
3779, 4171, 4172, 4211, 4210
3780, 4172, 4173, 4212, 4211
3781, 4173, 4174, 4213, 4212
3782, 4174, 4175, 4214, 4213
3783, 4175, 4176, 4215, 4214
3784, 4176, 4177, 4216, 4215
3785, 4177, 4178, 4217, 4216
3786, 4178, 4179, 4218, 4217
3787, 4179, 4180, 4219, 4218
3788, 4180, 4181, 4220, 4219
3789, 4181, 4182, 4221, 4220
3790, 4182, 4183, 4222, 4221
3791, 4183, 4184, 4223, 4222
3792, 4184, 4185, 4224, 4223
3793, 4185, 4186, 4225, 4224
3794, 4186, 4187, 4226, 4225
3795, 4187, 4188, 4227, 4226
3796, 4188, 4189, 4228, 4227
3797, 4189, 4190, 4229, 4228
3798, 4190, 4191, 4230, 4229
3799, 4191, 4192, 4231, 4230
3800, 4192,  141,  142, 4231
3801,  230, 4193, 4232,  229
3802, 4193, 4194, 4233, 4232
3803, 4194, 4195, 4234, 4233
3804, 4195, 4196, 4235, 4234
3805, 4196, 4197, 4236, 4235
3806, 4197, 4198, 4237, 4236
3807, 4198, 4199, 4238, 4237
3808, 4199, 4200, 4239, 4238
3809, 4200, 4201, 4240, 4239
3810, 4201, 4202, 4241, 4240
3811, 4202, 4203, 4242, 4241
3812, 4203, 4204, 4243, 4242
3813, 4204, 4205, 4244, 4243
3814, 4205, 4206, 4245, 4244
3815, 4206, 4207, 4246, 4245
3816, 4207, 4208, 4247, 4246
3817, 4208, 4209, 4248, 4247
3818, 4209, 4210, 4249, 4248
3819, 4210, 4211, 4250, 4249
3820, 4211, 4212, 4251, 4250
3821, 4212, 4213, 4252, 4251
3822, 4213, 4214, 4253, 4252
3823, 4214, 4215, 4254, 4253
3824, 4215, 4216, 4255, 4254
3825, 4216, 4217, 4256, 4255
3826, 4217, 4218, 4257, 4256
3827, 4218, 4219, 4258, 4257
3828, 4219, 4220, 4259, 4258
3829, 4220, 4221, 4260, 4259
3830, 4221, 4222, 4261, 4260
3831, 4222, 4223, 4262, 4261
3832, 4223, 4224, 4263, 4262
3833, 4224, 4225, 4264, 4263
3834, 4225, 4226, 4265, 4264
3835, 4226, 4227, 4266, 4265
3836, 4227, 4228, 4267, 4266
3837, 4228, 4229, 4268, 4267
3838, 4229, 4230, 4269, 4268
3839, 4230, 4231, 4270, 4269
3840, 4231,  142,  143, 4270
3841,  229, 4232, 4271,  228
3842, 4232, 4233, 4272, 4271
3843, 4233, 4234, 4273, 4272
3844, 4234, 4235, 4274, 4273
3845, 4235, 4236, 4275, 4274
3846, 4236, 4237, 4276, 4275
3847, 4237, 4238, 4277, 4276
3848, 4238, 4239, 4278, 4277
3849, 4239, 4240, 4279, 4278
3850, 4240, 4241, 4280, 4279
3851, 4241, 4242, 4281, 4280
3852, 4242, 4243, 4282, 4281
3853, 4243, 4244, 4283, 4282
3854, 4244, 4245, 4284, 4283
3855, 4245, 4246, 4285, 4284
3856, 4246, 4247, 4286, 4285
3857, 4247, 4248, 4287, 4286
3858, 4248, 4249, 4288, 4287
3859, 4249, 4250, 4289, 4288
3860, 4250, 4251, 4290, 4289
3861, 4251, 4252, 4291, 4290
3862, 4252, 4253, 4292, 4291
3863, 4253, 4254, 4293, 4292
3864, 4254, 4255, 4294, 4293
3865, 4255, 4256, 4295, 4294
3866, 4256, 4257, 4296, 4295
3867, 4257, 4258, 4297, 4296
3868, 4258, 4259, 4298, 4297
3869, 4259, 4260, 4299, 4298
3870, 4260, 4261, 4300, 4299
3871, 4261, 4262, 4301, 4300
3872, 4262, 4263, 4302, 4301
3873, 4263, 4264, 4303, 4302
3874, 4264, 4265, 4304, 4303
3875, 4265, 4266, 4305, 4304
3876, 4266, 4267, 4306, 4305
3877, 4267, 4268, 4307, 4306
3878, 4268, 4269, 4308, 4307
3879, 4269, 4270, 4309, 4308
3880, 4270,  143,  144, 4309
3881,  228, 4271, 4310,  227
3882, 4271, 4272, 4311, 4310
3883, 4272, 4273, 4312, 4311
3884, 4273, 4274, 4313, 4312
3885, 4274, 4275, 4314, 4313
3886, 4275, 4276, 4315, 4314
3887, 4276, 4277, 4316, 4315
3888, 4277, 4278, 4317, 4316
3889, 4278, 4279, 4318, 4317
3890, 4279, 4280, 4319, 4318
3891, 4280, 4281, 4320, 4319
3892, 4281, 4282, 4321, 4320
3893, 4282, 4283, 4322, 4321
3894, 4283, 4284, 4323, 4322
3895, 4284, 4285, 4324, 4323
3896, 4285, 4286, 4325, 4324
3897, 4286, 4287, 4326, 4325
3898, 4287, 4288, 4327, 4326
3899, 4288, 4289, 4328, 4327
3900, 4289, 4290, 4329, 4328
3901, 4290, 4291, 4330, 4329
3902, 4291, 4292, 4331, 4330
3903, 4292, 4293, 4332, 4331
3904, 4293, 4294, 4333, 4332
3905, 4294, 4295, 4334, 4333
3906, 4295, 4296, 4335, 4334
3907, 4296, 4297, 4336, 4335
3908, 4297, 4298, 4337, 4336
3909, 4298, 4299, 4338, 4337
3910, 4299, 4300, 4339, 4338
3911, 4300, 4301, 4340, 4339
3912, 4301, 4302, 4341, 4340
3913, 4302, 4303, 4342, 4341
3914, 4303, 4304, 4343, 4342
3915, 4304, 4305, 4344, 4343
3916, 4305, 4306, 4345, 4344
3917, 4306, 4307, 4346, 4345
3918, 4307, 4308, 4347, 4346
3919, 4308, 4309, 4348, 4347
3920, 4309,  144,  145, 4348
3921,  227, 4310, 4349,  226
3922, 4310, 4311, 4350, 4349
3923, 4311, 4312, 4351, 4350
3924, 4312, 4313, 4352, 4351
3925, 4313, 4314, 4353, 4352
3926, 4314, 4315, 4354, 4353
3927, 4315, 4316, 4355, 4354
3928, 4316, 4317, 4356, 4355
3929, 4317, 4318, 4357, 4356
3930, 4318, 4319, 4358, 4357
3931, 4319, 4320, 4359, 4358
3932, 4320, 4321, 4360, 4359
3933, 4321, 4322, 4361, 4360
3934, 4322, 4323, 4362, 4361
3935, 4323, 4324, 4363, 4362
3936, 4324, 4325, 4364, 4363
3937, 4325, 4326, 4365, 4364
3938, 4326, 4327, 4366, 4365
3939, 4327, 4328, 4367, 4366
3940, 4328, 4329, 4368, 4367
3941, 4329, 4330, 4369, 4368
3942, 4330, 4331, 4370, 4369
3943, 4331, 4332, 4371, 4370
3944, 4332, 4333, 4372, 4371
3945, 4333, 4334, 4373, 4372
3946, 4334, 4335, 4374, 4373
3947, 4335, 4336, 4375, 4374
3948, 4336, 4337, 4376, 4375
3949, 4337, 4338, 4377, 4376
3950, 4338, 4339, 4378, 4377
3951, 4339, 4340, 4379, 4378
3952, 4340, 4341, 4380, 4379
3953, 4341, 4342, 4381, 4380
3954, 4342, 4343, 4382, 4381
3955, 4343, 4344, 4383, 4382
3956, 4344, 4345, 4384, 4383
3957, 4345, 4346, 4385, 4384
3958, 4346, 4347, 4386, 4385
3959, 4347, 4348, 4387, 4386
3960, 4348,  145,  146, 4387
3961,  226, 4349, 4388,  225
3962, 4349, 4350, 4389, 4388
3963, 4350, 4351, 4390, 4389
3964, 4351, 4352, 4391, 4390
3965, 4352, 4353, 4392, 4391
3966, 4353, 4354, 4393, 4392
3967, 4354, 4355, 4394, 4393
3968, 4355, 4356, 4395, 4394
3969, 4356, 4357, 4396, 4395
3970, 4357, 4358, 4397, 4396
3971, 4358, 4359, 4398, 4397
3972, 4359, 4360, 4399, 4398
3973, 4360, 4361, 4400, 4399
3974, 4361, 4362, 4401, 4400
3975, 4362, 4363, 4402, 4401
3976, 4363, 4364, 4403, 4402
3977, 4364, 4365, 4404, 4403
3978, 4365, 4366, 4405, 4404
3979, 4366, 4367, 4406, 4405
3980, 4367, 4368, 4407, 4406
3981, 4368, 4369, 4408, 4407
3982, 4369, 4370, 4409, 4408
3983, 4370, 4371, 4410, 4409
3984, 4371, 4372, 4411, 4410
3985, 4372, 4373, 4412, 4411
3986, 4373, 4374, 4413, 4412
3987, 4374, 4375, 4414, 4413
3988, 4375, 4376, 4415, 4414
3989, 4376, 4377, 4416, 4415
3990, 4377, 4378, 4417, 4416
3991, 4378, 4379, 4418, 4417
3992, 4379, 4380, 4419, 4418
3993, 4380, 4381, 4420, 4419
3994, 4381, 4382, 4421, 4420
3995, 4382, 4383, 4422, 4421
3996, 4383, 4384, 4423, 4422
3997, 4384, 4385, 4424, 4423
3998, 4385, 4386, 4425, 4424
3999, 4386, 4387, 4426, 4425
4000, 4387,  146,  147, 4426
4001,  225, 4388, 4427,  224
4002, 4388, 4389, 4428, 4427
4003, 4389, 4390, 4429, 4428
4004, 4390, 4391, 4430, 4429
4005, 4391, 4392, 4431, 4430
4006, 4392, 4393, 4432, 4431
4007, 4393, 4394, 4433, 4432
4008, 4394, 4395, 4434, 4433
4009, 4395, 4396, 4435, 4434
4010, 4396, 4397, 4436, 4435
4011, 4397, 4398, 4437, 4436
4012, 4398, 4399, 4438, 4437
4013, 4399, 4400, 4439, 4438
4014, 4400, 4401, 4440, 4439
4015, 4401, 4402, 4441, 4440
4016, 4402, 4403, 4442, 4441
4017, 4403, 4404, 4443, 4442
4018, 4404, 4405, 4444, 4443
4019, 4405, 4406, 4445, 4444
4020, 4406, 4407, 4446, 4445
4021, 4407, 4408, 4447, 4446
4022, 4408, 4409, 4448, 4447
4023, 4409, 4410, 4449, 4448
4024, 4410, 4411, 4450, 4449
4025, 4411, 4412, 4451, 4450
4026, 4412, 4413, 4452, 4451
4027, 4413, 4414, 4453, 4452
4028, 4414, 4415, 4454, 4453
4029, 4415, 4416, 4455, 4454
4030, 4416, 4417, 4456, 4455
4031, 4417, 4418, 4457, 4456
4032, 4418, 4419, 4458, 4457
4033, 4419, 4420, 4459, 4458
4034, 4420, 4421, 4460, 4459
4035, 4421, 4422, 4461, 4460
4036, 4422, 4423, 4462, 4461
4037, 4423, 4424, 4463, 4462
4038, 4424, 4425, 4464, 4463
4039, 4425, 4426, 4465, 4464
4040, 4426,  147,  148, 4465
4041,  224, 4427, 4466,  223
4042, 4427, 4428, 4467, 4466
4043, 4428, 4429, 4468, 4467
4044, 4429, 4430, 4469, 4468
4045, 4430, 4431, 4470, 4469
4046, 4431, 4432, 4471, 4470
4047, 4432, 4433, 4472, 4471
4048, 4433, 4434, 4473, 4472
4049, 4434, 4435, 4474, 4473
4050, 4435, 4436, 4475, 4474
4051, 4436, 4437, 4476, 4475
4052, 4437, 4438, 4477, 4476
4053, 4438, 4439, 4478, 4477
4054, 4439, 4440, 4479, 4478
4055, 4440, 4441, 4480, 4479
4056, 4441, 4442, 4481, 4480
4057, 4442, 4443, 4482, 4481
4058, 4443, 4444, 4483, 4482
4059, 4444, 4445, 4484, 4483
4060, 4445, 4446, 4485, 4484
4061, 4446, 4447, 4486, 4485
4062, 4447, 4448, 4487, 4486
4063, 4448, 4449, 4488, 4487
4064, 4449, 4450, 4489, 4488
4065, 4450, 4451, 4490, 4489
4066, 4451, 4452, 4491, 4490
4067, 4452, 4453, 4492, 4491
4068, 4453, 4454, 4493, 4492
4069, 4454, 4455, 4494, 4493
4070, 4455, 4456, 4495, 4494
4071, 4456, 4457, 4496, 4495
4072, 4457, 4458, 4497, 4496
4073, 4458, 4459, 4498, 4497
4074, 4459, 4460, 4499, 4498
4075, 4460, 4461, 4500, 4499
4076, 4461, 4462, 4501, 4500
4077, 4462, 4463, 4502, 4501
4078, 4463, 4464, 4503, 4502
4079, 4464, 4465, 4504, 4503
4080, 4465,  148,  149, 4504
4081,  223, 4466, 4505,  222
4082, 4466, 4467, 4506, 4505
4083, 4467, 4468, 4507, 4506
4084, 4468, 4469, 4508, 4507
4085, 4469, 4470, 4509, 4508
4086, 4470, 4471, 4510, 4509
4087, 4471, 4472, 4511, 4510
4088, 4472, 4473, 4512, 4511
4089, 4473, 4474, 4513, 4512
4090, 4474, 4475, 4514, 4513
4091, 4475, 4476, 4515, 4514
4092, 4476, 4477, 4516, 4515
4093, 4477, 4478, 4517, 4516
4094, 4478, 4479, 4518, 4517
4095, 4479, 4480, 4519, 4518
4096, 4480, 4481, 4520, 4519
4097, 4481, 4482, 4521, 4520
4098, 4482, 4483, 4522, 4521
4099, 4483, 4484, 4523, 4522
4100, 4484, 4485, 4524, 4523
4101, 4485, 4486, 4525, 4524
4102, 4486, 4487, 4526, 4525
4103, 4487, 4488, 4527, 4526
4104, 4488, 4489, 4528, 4527
4105, 4489, 4490, 4529, 4528
4106, 4490, 4491, 4530, 4529
4107, 4491, 4492, 4531, 4530
4108, 4492, 4493, 4532, 4531
4109, 4493, 4494, 4533, 4532
4110, 4494, 4495, 4534, 4533
4111, 4495, 4496, 4535, 4534
4112, 4496, 4497, 4536, 4535
4113, 4497, 4498, 4537, 4536
4114, 4498, 4499, 4538, 4537
4115, 4499, 4500, 4539, 4538
4116, 4500, 4501, 4540, 4539
4117, 4501, 4502, 4541, 4540
4118, 4502, 4503, 4542, 4541
4119, 4503, 4504, 4543, 4542
4120, 4504,  149,  150, 4543
4121,  222, 4505, 4544,  221
4122, 4505, 4506, 4545, 4544
4123, 4506, 4507, 4546, 4545
4124, 4507, 4508, 4547, 4546
4125, 4508, 4509, 4548, 4547
4126, 4509, 4510, 4549, 4548
4127, 4510, 4511, 4550, 4549
4128, 4511, 4512, 4551, 4550
4129, 4512, 4513, 4552, 4551
4130, 4513, 4514, 4553, 4552
4131, 4514, 4515, 4554, 4553
4132, 4515, 4516, 4555, 4554
4133, 4516, 4517, 4556, 4555
4134, 4517, 4518, 4557, 4556
4135, 4518, 4519, 4558, 4557
4136, 4519, 4520, 4559, 4558
4137, 4520, 4521, 4560, 4559
4138, 4521, 4522, 4561, 4560
4139, 4522, 4523, 4562, 4561
4140, 4523, 4524, 4563, 4562
4141, 4524, 4525, 4564, 4563
4142, 4525, 4526, 4565, 4564
4143, 4526, 4527, 4566, 4565
4144, 4527, 4528, 4567, 4566
4145, 4528, 4529, 4568, 4567
4146, 4529, 4530, 4569, 4568
4147, 4530, 4531, 4570, 4569
4148, 4531, 4532, 4571, 4570
4149, 4532, 4533, 4572, 4571
4150, 4533, 4534, 4573, 4572
4151, 4534, 4535, 4574, 4573
4152, 4535, 4536, 4575, 4574
4153, 4536, 4537, 4576, 4575
4154, 4537, 4538, 4577, 4576
4155, 4538, 4539, 4578, 4577
4156, 4539, 4540, 4579, 4578
4157, 4540, 4541, 4580, 4579
4158, 4541, 4542, 4581, 4580
4159, 4542, 4543, 4582, 4581
4160, 4543,  150,  151, 4582
4161,  221, 4544, 4583,  220
4162, 4544, 4545, 4584, 4583
4163, 4545, 4546, 4585, 4584
4164, 4546, 4547, 4586, 4585
4165, 4547, 4548, 4587, 4586
4166, 4548, 4549, 4588, 4587
4167, 4549, 4550, 4589, 4588
4168, 4550, 4551, 4590, 4589
4169, 4551, 4552, 4591, 4590
4170, 4552, 4553, 4592, 4591
4171, 4553, 4554, 4593, 4592
4172, 4554, 4555, 4594, 4593
4173, 4555, 4556, 4595, 4594
4174, 4556, 4557, 4596, 4595
4175, 4557, 4558, 4597, 4596
4176, 4558, 4559, 4598, 4597
4177, 4559, 4560, 4599, 4598
4178, 4560, 4561, 4600, 4599
4179, 4561, 4562, 4601, 4600
4180, 4562, 4563, 4602, 4601
4181, 4563, 4564, 4603, 4602
4182, 4564, 4565, 4604, 4603
4183, 4565, 4566, 4605, 4604
4184, 4566, 4567, 4606, 4605
4185, 4567, 4568, 4607, 4606
4186, 4568, 4569, 4608, 4607
4187, 4569, 4570, 4609, 4608
4188, 4570, 4571, 4610, 4609
4189, 4571, 4572, 4611, 4610
4190, 4572, 4573, 4612, 4611
4191, 4573, 4574, 4613, 4612
4192, 4574, 4575, 4614, 4613
4193, 4575, 4576, 4615, 4614
4194, 4576, 4577, 4616, 4615
4195, 4577, 4578, 4617, 4616
4196, 4578, 4579, 4618, 4617
4197, 4579, 4580, 4619, 4618
4198, 4580, 4581, 4620, 4619
4199, 4581, 4582, 4621, 4620
4200, 4582,  151,  152, 4621
4201,  220, 4583, 4622,  219
4202, 4583, 4584, 4623, 4622
4203, 4584, 4585, 4624, 4623
4204, 4585, 4586, 4625, 4624
4205, 4586, 4587, 4626, 4625
4206, 4587, 4588, 4627, 4626
4207, 4588, 4589, 4628, 4627
4208, 4589, 4590, 4629, 4628
4209, 4590, 4591, 4630, 4629
4210, 4591, 4592, 4631, 4630
4211, 4592, 4593, 4632, 4631
4212, 4593, 4594, 4633, 4632
4213, 4594, 4595, 4634, 4633
4214, 4595, 4596, 4635, 4634
4215, 4596, 4597, 4636, 4635
4216, 4597, 4598, 4637, 4636
4217, 4598, 4599, 4638, 4637
4218, 4599, 4600, 4639, 4638
4219, 4600, 4601, 4640, 4639
4220, 4601, 4602, 4641, 4640
4221, 4602, 4603, 4642, 4641
4222, 4603, 4604, 4643, 4642
4223, 4604, 4605, 4644, 4643
4224, 4605, 4606, 4645, 4644
4225, 4606, 4607, 4646, 4645
4226, 4607, 4608, 4647, 4646
4227, 4608, 4609, 4648, 4647
4228, 4609, 4610, 4649, 4648
4229, 4610, 4611, 4650, 4649
4230, 4611, 4612, 4651, 4650
4231, 4612, 4613, 4652, 4651
4232, 4613, 4614, 4653, 4652
4233, 4614, 4615, 4654, 4653
4234, 4615, 4616, 4655, 4654
4235, 4616, 4617, 4656, 4655
4236, 4617, 4618, 4657, 4656
4237, 4618, 4619, 4658, 4657
4238, 4619, 4620, 4659, 4658
4239, 4620, 4621, 4660, 4659
4240, 4621,  152,  153, 4660
4241,  219, 4622, 4661,  218
4242, 4622, 4623, 4662, 4661
4243, 4623, 4624, 4663, 4662
4244, 4624, 4625, 4664, 4663
4245, 4625, 4626, 4665, 4664
4246, 4626, 4627, 4666, 4665
4247, 4627, 4628, 4667, 4666
4248, 4628, 4629, 4668, 4667
4249, 4629, 4630, 4669, 4668
4250, 4630, 4631, 4670, 4669
4251, 4631, 4632, 4671, 4670
4252, 4632, 4633, 4672, 4671
4253, 4633, 4634, 4673, 4672
4254, 4634, 4635, 4674, 4673
4255, 4635, 4636, 4675, 4674
4256, 4636, 4637, 4676, 4675
4257, 4637, 4638, 4677, 4676
4258, 4638, 4639, 4678, 4677
4259, 4639, 4640, 4679, 4678
4260, 4640, 4641, 4680, 4679
4261, 4641, 4642, 4681, 4680
4262, 4642, 4643, 4682, 4681
4263, 4643, 4644, 4683, 4682
4264, 4644, 4645, 4684, 4683
4265, 4645, 4646, 4685, 4684
4266, 4646, 4647, 4686, 4685
4267, 4647, 4648, 4687, 4686
4268, 4648, 4649, 4688, 4687
4269, 4649, 4650, 4689, 4688
4270, 4650, 4651, 4690, 4689
4271, 4651, 4652, 4691, 4690
4272, 4652, 4653, 4692, 4691
4273, 4653, 4654, 4693, 4692
4274, 4654, 4655, 4694, 4693
4275, 4655, 4656, 4695, 4694
4276, 4656, 4657, 4696, 4695
4277, 4657, 4658, 4697, 4696
4278, 4658, 4659, 4698, 4697
4279, 4659, 4660, 4699, 4698
4280, 4660,  153,  154, 4699
4281,  218, 4661, 4700,  217
4282, 4661, 4662, 4701, 4700
4283, 4662, 4663, 4702, 4701
4284, 4663, 4664, 4703, 4702
4285, 4664, 4665, 4704, 4703
4286, 4665, 4666, 4705, 4704
4287, 4666, 4667, 4706, 4705
4288, 4667, 4668, 4707, 4706
4289, 4668, 4669, 4708, 4707
4290, 4669, 4670, 4709, 4708
4291, 4670, 4671, 4710, 4709
4292, 4671, 4672, 4711, 4710
4293, 4672, 4673, 4712, 4711
4294, 4673, 4674, 4713, 4712
4295, 4674, 4675, 4714, 4713
4296, 4675, 4676, 4715, 4714
4297, 4676, 4677, 4716, 4715
4298, 4677, 4678, 4717, 4716
4299, 4678, 4679, 4718, 4717
4300, 4679, 4680, 4719, 4718
4301, 4680, 4681, 4720, 4719
4302, 4681, 4682, 4721, 4720
4303, 4682, 4683, 4722, 4721
4304, 4683, 4684, 4723, 4722
4305, 4684, 4685, 4724, 4723
4306, 4685, 4686, 4725, 4724
4307, 4686, 4687, 4726, 4725
4308, 4687, 4688, 4727, 4726
4309, 4688, 4689, 4728, 4727
4310, 4689, 4690, 4729, 4728
4311, 4690, 4691, 4730, 4729
4312, 4691, 4692, 4731, 4730
4313, 4692, 4693, 4732, 4731
4314, 4693, 4694, 4733, 4732
4315, 4694, 4695, 4734, 4733
4316, 4695, 4696, 4735, 4734
4317, 4696, 4697, 4736, 4735
4318, 4697, 4698, 4737, 4736
4319, 4698, 4699, 4738, 4737
4320, 4699,  154,  155, 4738
4321,  217, 4700, 4739,  216
4322, 4700, 4701, 4740, 4739
4323, 4701, 4702, 4741, 4740
4324, 4702, 4703, 4742, 4741
4325, 4703, 4704, 4743, 4742
4326, 4704, 4705, 4744, 4743
4327, 4705, 4706, 4745, 4744
4328, 4706, 4707, 4746, 4745
4329, 4707, 4708, 4747, 4746
4330, 4708, 4709, 4748, 4747
4331, 4709, 4710, 4749, 4748
4332, 4710, 4711, 4750, 4749
4333, 4711, 4712, 4751, 4750
4334, 4712, 4713, 4752, 4751
4335, 4713, 4714, 4753, 4752
4336, 4714, 4715, 4754, 4753
4337, 4715, 4716, 4755, 4754
4338, 4716, 4717, 4756, 4755
4339, 4717, 4718, 4757, 4756
4340, 4718, 4719, 4758, 4757
4341, 4719, 4720, 4759, 4758
4342, 4720, 4721, 4760, 4759
4343, 4721, 4722, 4761, 4760
4344, 4722, 4723, 4762, 4761
4345, 4723, 4724, 4763, 4762
4346, 4724, 4725, 4764, 4763
4347, 4725, 4726, 4765, 4764
4348, 4726, 4727, 4766, 4765
4349, 4727, 4728, 4767, 4766
4350, 4728, 4729, 4768, 4767
4351, 4729, 4730, 4769, 4768
4352, 4730, 4731, 4770, 4769
4353, 4731, 4732, 4771, 4770
4354, 4732, 4733, 4772, 4771
4355, 4733, 4734, 4773, 4772
4356, 4734, 4735, 4774, 4773
4357, 4735, 4736, 4775, 4774
4358, 4736, 4737, 4776, 4775
4359, 4737, 4738, 4777, 4776
4360, 4738,  155,  156, 4777
4361,  216, 4739, 4778,  215
4362, 4739, 4740, 4779, 4778
4363, 4740, 4741, 4780, 4779
4364, 4741, 4742, 4781, 4780
4365, 4742, 4743, 4782, 4781
4366, 4743, 4744, 4783, 4782
4367, 4744, 4745, 4784, 4783
4368, 4745, 4746, 4785, 4784
4369, 4746, 4747, 4786, 4785
4370, 4747, 4748, 4787, 4786
4371, 4748, 4749, 4788, 4787
4372, 4749, 4750, 4789, 4788
4373, 4750, 4751, 4790, 4789
4374, 4751, 4752, 4791, 4790
4375, 4752, 4753, 4792, 4791
4376, 4753, 4754, 4793, 4792
4377, 4754, 4755, 4794, 4793
4378, 4755, 4756, 4795, 4794
4379, 4756, 4757, 4796, 4795
4380, 4757, 4758, 4797, 4796
4381, 4758, 4759, 4798, 4797
4382, 4759, 4760, 4799, 4798
4383, 4760, 4761, 4800, 4799
4384, 4761, 4762, 4801, 4800
4385, 4762, 4763, 4802, 4801
4386, 4763, 4764, 4803, 4802
4387, 4764, 4765, 4804, 4803
4388, 4765, 4766, 4805, 4804
4389, 4766, 4767, 4806, 4805
4390, 4767, 4768, 4807, 4806
4391, 4768, 4769, 4808, 4807
4392, 4769, 4770, 4809, 4808
4393, 4770, 4771, 4810, 4809
4394, 4771, 4772, 4811, 4810
4395, 4772, 4773, 4812, 4811
4396, 4773, 4774, 4813, 4812
4397, 4774, 4775, 4814, 4813
4398, 4775, 4776, 4815, 4814
4399, 4776, 4777, 4816, 4815
4400, 4777,  156,  157, 4816
4401,  215, 4778, 4817,  214
4402, 4778, 4779, 4818, 4817
4403, 4779, 4780, 4819, 4818
4404, 4780, 4781, 4820, 4819
4405, 4781, 4782, 4821, 4820
4406, 4782, 4783, 4822, 4821
4407, 4783, 4784, 4823, 4822
4408, 4784, 4785, 4824, 4823
4409, 4785, 4786, 4825, 4824
4410, 4786, 4787, 4826, 4825
4411, 4787, 4788, 4827, 4826
4412, 4788, 4789, 4828, 4827
4413, 4789, 4790, 4829, 4828
4414, 4790, 4791, 4830, 4829
4415, 4791, 4792, 4831, 4830
4416, 4792, 4793, 4832, 4831
4417, 4793, 4794, 4833, 4832
4418, 4794, 4795, 4834, 4833
4419, 4795, 4796, 4835, 4834
4420, 4796, 4797, 4836, 4835
4421, 4797, 4798, 4837, 4836
4422, 4798, 4799, 4838, 4837
4423, 4799, 4800, 4839, 4838
4424, 4800, 4801, 4840, 4839
4425, 4801, 4802, 4841, 4840
4426, 4802, 4803, 4842, 4841
4427, 4803, 4804, 4843, 4842
4428, 4804, 4805, 4844, 4843
4429, 4805, 4806, 4845, 4844
4430, 4806, 4807, 4846, 4845
4431, 4807, 4808, 4847, 4846
4432, 4808, 4809, 4848, 4847
4433, 4809, 4810, 4849, 4848
4434, 4810, 4811, 4850, 4849
4435, 4811, 4812, 4851, 4850
4436, 4812, 4813, 4852, 4851
4437, 4813, 4814, 4853, 4852
4438, 4814, 4815, 4854, 4853
4439, 4815, 4816, 4855, 4854
4440, 4816,  157,  158, 4855
4441,  214, 4817, 4856,  213
4442, 4817, 4818, 4857, 4856
4443, 4818, 4819, 4858, 4857
4444, 4819, 4820, 4859, 4858
4445, 4820, 4821, 4860, 4859
4446, 4821, 4822, 4861, 4860
4447, 4822, 4823, 4862, 4861
4448, 4823, 4824, 4863, 4862
4449, 4824, 4825, 4864, 4863
4450, 4825, 4826, 4865, 4864
4451, 4826, 4827, 4866, 4865
4452, 4827, 4828, 4867, 4866
4453, 4828, 4829, 4868, 4867
4454, 4829, 4830, 4869, 4868
4455, 4830, 4831, 4870, 4869
4456, 4831, 4832, 4871, 4870
4457, 4832, 4833, 4872, 4871
4458, 4833, 4834, 4873, 4872
4459, 4834, 4835, 4874, 4873
4460, 4835, 4836, 4875, 4874
4461, 4836, 4837, 4876, 4875
4462, 4837, 4838, 4877, 4876
4463, 4838, 4839, 4878, 4877
4464, 4839, 4840, 4879, 4878
4465, 4840, 4841, 4880, 4879
4466, 4841, 4842, 4881, 4880
4467, 4842, 4843, 4882, 4881
4468, 4843, 4844, 4883, 4882
4469, 4844, 4845, 4884, 4883
4470, 4845, 4846, 4885, 4884
4471, 4846, 4847, 4886, 4885
4472, 4847, 4848, 4887, 4886
4473, 4848, 4849, 4888, 4887
4474, 4849, 4850, 4889, 4888
4475, 4850, 4851, 4890, 4889
4476, 4851, 4852, 4891, 4890
4477, 4852, 4853, 4892, 4891
4478, 4853, 4854, 4893, 4892
4479, 4854, 4855, 4894, 4893
4480, 4855,  158,  159, 4894
4481,  213, 4856, 4895,  212
4482, 4856, 4857, 4896, 4895
4483, 4857, 4858, 4897, 4896
4484, 4858, 4859, 4898, 4897
4485, 4859, 4860, 4899, 4898
4486, 4860, 4861, 4900, 4899
4487, 4861, 4862, 4901, 4900
4488, 4862, 4863, 4902, 4901
4489, 4863, 4864, 4903, 4902
4490, 4864, 4865, 4904, 4903
4491, 4865, 4866, 4905, 4904
4492, 4866, 4867, 4906, 4905
4493, 4867, 4868, 4907, 4906
4494, 4868, 4869, 4908, 4907
4495, 4869, 4870, 4909, 4908
4496, 4870, 4871, 4910, 4909
4497, 4871, 4872, 4911, 4910
4498, 4872, 4873, 4912, 4911
4499, 4873, 4874, 4913, 4912
4500, 4874, 4875, 4914, 4913
4501, 4875, 4876, 4915, 4914
4502, 4876, 4877, 4916, 4915
4503, 4877, 4878, 4917, 4916
4504, 4878, 4879, 4918, 4917
4505, 4879, 4880, 4919, 4918
4506, 4880, 4881, 4920, 4919
4507, 4881, 4882, 4921, 4920
4508, 4882, 4883, 4922, 4921
4509, 4883, 4884, 4923, 4922
4510, 4884, 4885, 4924, 4923
4511, 4885, 4886, 4925, 4924
4512, 4886, 4887, 4926, 4925
4513, 4887, 4888, 4927, 4926
4514, 4888, 4889, 4928, 4927
4515, 4889, 4890, 4929, 4928
4516, 4890, 4891, 4930, 4929
4517, 4891, 4892, 4931, 4930
4518, 4892, 4893, 4932, 4931
4519, 4893, 4894, 4933, 4932
4520, 4894,  159,  160, 4933
4521,  212, 4895, 4934,  211
4522, 4895, 4896, 4935, 4934
4523, 4896, 4897, 4936, 4935
4524, 4897, 4898, 4937, 4936
4525, 4898, 4899, 4938, 4937
4526, 4899, 4900, 4939, 4938
4527, 4900, 4901, 4940, 4939
4528, 4901, 4902, 4941, 4940
4529, 4902, 4903, 4942, 4941
4530, 4903, 4904, 4943, 4942
4531, 4904, 4905, 4944, 4943
4532, 4905, 4906, 4945, 4944
4533, 4906, 4907, 4946, 4945
4534, 4907, 4908, 4947, 4946
4535, 4908, 4909, 4948, 4947
4536, 4909, 4910, 4949, 4948
4537, 4910, 4911, 4950, 4949
4538, 4911, 4912, 4951, 4950
4539, 4912, 4913, 4952, 4951
4540, 4913, 4914, 4953, 4952
4541, 4914, 4915, 4954, 4953
4542, 4915, 4916, 4955, 4954
4543, 4916, 4917, 4956, 4955
4544, 4917, 4918, 4957, 4956
4545, 4918, 4919, 4958, 4957
4546, 4919, 4920, 4959, 4958
4547, 4920, 4921, 4960, 4959
4548, 4921, 4922, 4961, 4960
4549, 4922, 4923, 4962, 4961
4550, 4923, 4924, 4963, 4962
4551, 4924, 4925, 4964, 4963
4552, 4925, 4926, 4965, 4964
4553, 4926, 4927, 4966, 4965
4554, 4927, 4928, 4967, 4966
4555, 4928, 4929, 4968, 4967
4556, 4929, 4930, 4969, 4968
4557, 4930, 4931, 4970, 4969
4558, 4931, 4932, 4971, 4970
4559, 4932, 4933, 4972, 4971
4560, 4933,  160,  161, 4972
4561,  211, 4934, 4973,  210
4562, 4934, 4935, 4974, 4973
4563, 4935, 4936, 4975, 4974
4564, 4936, 4937, 4976, 4975
4565, 4937, 4938, 4977, 4976
4566, 4938, 4939, 4978, 4977
4567, 4939, 4940, 4979, 4978
4568, 4940, 4941, 4980, 4979
4569, 4941, 4942, 4981, 4980
4570, 4942, 4943, 4982, 4981
4571, 4943, 4944, 4983, 4982
4572, 4944, 4945, 4984, 4983
4573, 4945, 4946, 4985, 4984
4574, 4946, 4947, 4986, 4985
4575, 4947, 4948, 4987, 4986
4576, 4948, 4949, 4988, 4987
4577, 4949, 4950, 4989, 4988
4578, 4950, 4951, 4990, 4989
4579, 4951, 4952, 4991, 4990
4580, 4952, 4953, 4992, 4991
4581, 4953, 4954, 4993, 4992
4582, 4954, 4955, 4994, 4993
4583, 4955, 4956, 4995, 4994
4584, 4956, 4957, 4996, 4995
4585, 4957, 4958, 4997, 4996
4586, 4958, 4959, 4998, 4997
4587, 4959, 4960, 4999, 4998
4588, 4960, 4961, 5000, 4999
4589, 4961, 4962, 5001, 5000
4590, 4962, 4963, 5002, 5001
4591, 4963, 4964, 5003, 5002
4592, 4964, 4965, 5004, 5003
4593, 4965, 4966, 5005, 5004
4594, 4966, 4967, 5006, 5005
4595, 4967, 4968, 5007, 5006
4596, 4968, 4969, 5008, 5007
4597, 4969, 4970, 5009, 5008
4598, 4970, 4971, 5010, 5009
4599, 4971, 4972, 5011, 5010
4600, 4972,  161,  162, 5011
4601,  210, 4973, 5012,  209
4602, 4973, 4974, 5013, 5012
4603, 4974, 4975, 5014, 5013
4604, 4975, 4976, 5015, 5014
4605, 4976, 4977, 5016, 5015
4606, 4977, 4978, 5017, 5016
4607, 4978, 4979, 5018, 5017
4608, 4979, 4980, 5019, 5018
4609, 4980, 4981, 5020, 5019
4610, 4981, 4982, 5021, 5020
4611, 4982, 4983, 5022, 5021
4612, 4983, 4984, 5023, 5022
4613, 4984, 4985, 5024, 5023
4614, 4985, 4986, 5025, 5024
4615, 4986, 4987, 5026, 5025
4616, 4987, 4988, 5027, 5026
4617, 4988, 4989, 5028, 5027
4618, 4989, 4990, 5029, 5028
4619, 4990, 4991, 5030, 5029
4620, 4991, 4992, 5031, 5030
4621, 4992, 4993, 5032, 5031
4622, 4993, 4994, 5033, 5032
4623, 4994, 4995, 5034, 5033
4624, 4995, 4996, 5035, 5034
4625, 4996, 4997, 5036, 5035
4626, 4997, 4998, 5037, 5036
4627, 4998, 4999, 5038, 5037
4628, 4999, 5000, 5039, 5038
4629, 5000, 5001, 5040, 5039
4630, 5001, 5002, 5041, 5040
4631, 5002, 5003, 5042, 5041
4632, 5003, 5004, 5043, 5042
4633, 5004, 5005, 5044, 5043
4634, 5005, 5006, 5045, 5044
4635, 5006, 5007, 5046, 5045
4636, 5007, 5008, 5047, 5046
4637, 5008, 5009, 5048, 5047
4638, 5009, 5010, 5049, 5048
4639, 5010, 5011, 5050, 5049
4640, 5011,  162,  163, 5050
4641,  209, 5012, 5051,  208
4642, 5012, 5013, 5052, 5051
4643, 5013, 5014, 5053, 5052
4644, 5014, 5015, 5054, 5053
4645, 5015, 5016, 5055, 5054
4646, 5016, 5017, 5056, 5055
4647, 5017, 5018, 5057, 5056
4648, 5018, 5019, 5058, 5057
4649, 5019, 5020, 5059, 5058
4650, 5020, 5021, 5060, 5059
4651, 5021, 5022, 5061, 5060
4652, 5022, 5023, 5062, 5061
4653, 5023, 5024, 5063, 5062
4654, 5024, 5025, 5064, 5063
4655, 5025, 5026, 5065, 5064
4656, 5026, 5027, 5066, 5065
4657, 5027, 5028, 5067, 5066
4658, 5028, 5029, 5068, 5067
4659, 5029, 5030, 5069, 5068
4660, 5030, 5031, 5070, 5069
4661, 5031, 5032, 5071, 5070
4662, 5032, 5033, 5072, 5071
4663, 5033, 5034, 5073, 5072
4664, 5034, 5035, 5074, 5073
4665, 5035, 5036, 5075, 5074
4666, 5036, 5037, 5076, 5075
4667, 5037, 5038, 5077, 5076
4668, 5038, 5039, 5078, 5077
4669, 5039, 5040, 5079, 5078
4670, 5040, 5041, 5080, 5079
4671, 5041, 5042, 5081, 5080
4672, 5042, 5043, 5082, 5081
4673, 5043, 5044, 5083, 5082
4674, 5044, 5045, 5084, 5083
4675, 5045, 5046, 5085, 5084
4676, 5046, 5047, 5086, 5085
4677, 5047, 5048, 5087, 5086
4678, 5048, 5049, 5088, 5087
4679, 5049, 5050, 5089, 5088
4680, 5050,  163,  164, 5089
4681,  208, 5051, 5090,  207
4682, 5051, 5052, 5091, 5090
4683, 5052, 5053, 5092, 5091
4684, 5053, 5054, 5093, 5092
4685, 5054, 5055, 5094, 5093
4686, 5055, 5056, 5095, 5094
4687, 5056, 5057, 5096, 5095
4688, 5057, 5058, 5097, 5096
4689, 5058, 5059, 5098, 5097
4690, 5059, 5060, 5099, 5098
4691, 5060, 5061, 5100, 5099
4692, 5061, 5062, 5101, 5100
4693, 5062, 5063, 5102, 5101
4694, 5063, 5064, 5103, 5102
4695, 5064, 5065, 5104, 5103
4696, 5065, 5066, 5105, 5104
4697, 5066, 5067, 5106, 5105
4698, 5067, 5068, 5107, 5106
4699, 5068, 5069, 5108, 5107
4700, 5069, 5070, 5109, 5108
4701, 5070, 5071, 5110, 5109
4702, 5071, 5072, 5111, 5110
4703, 5072, 5073, 5112, 5111
4704, 5073, 5074, 5113, 5112
4705, 5074, 5075, 5114, 5113
4706, 5075, 5076, 5115, 5114
4707, 5076, 5077, 5116, 5115
4708, 5077, 5078, 5117, 5116
4709, 5078, 5079, 5118, 5117
4710, 5079, 5080, 5119, 5118
4711, 5080, 5081, 5120, 5119
4712, 5081, 5082, 5121, 5120
4713, 5082, 5083, 5122, 5121
4714, 5083, 5084, 5123, 5122
4715, 5084, 5085, 5124, 5123
4716, 5085, 5086, 5125, 5124
4717, 5086, 5087, 5126, 5125
4718, 5087, 5088, 5127, 5126
4719, 5088, 5089, 5128, 5127
4720, 5089,  164,  165, 5128
4721,  207, 5090, 5129,  206
4722, 5090, 5091, 5130, 5129
4723, 5091, 5092, 5131, 5130
4724, 5092, 5093, 5132, 5131
4725, 5093, 5094, 5133, 5132
4726, 5094, 5095, 5134, 5133
4727, 5095, 5096, 5135, 5134
4728, 5096, 5097, 5136, 5135
4729, 5097, 5098, 5137, 5136
4730, 5098, 5099, 5138, 5137
4731, 5099, 5100, 5139, 5138
4732, 5100, 5101, 5140, 5139
4733, 5101, 5102, 5141, 5140
4734, 5102, 5103, 5142, 5141
4735, 5103, 5104, 5143, 5142
4736, 5104, 5105, 5144, 5143
4737, 5105, 5106, 5145, 5144
4738, 5106, 5107, 5146, 5145
4739, 5107, 5108, 5147, 5146
4740, 5108, 5109, 5148, 5147
4741, 5109, 5110, 5149, 5148
4742, 5110, 5111, 5150, 5149
4743, 5111, 5112, 5151, 5150
4744, 5112, 5113, 5152, 5151
4745, 5113, 5114, 5153, 5152
4746, 5114, 5115, 5154, 5153
4747, 5115, 5116, 5155, 5154
4748, 5116, 5117, 5156, 5155
4749, 5117, 5118, 5157, 5156
4750, 5118, 5119, 5158, 5157
4751, 5119, 5120, 5159, 5158
4752, 5120, 5121, 5160, 5159
4753, 5121, 5122, 5161, 5160
4754, 5122, 5123, 5162, 5161
4755, 5123, 5124, 5163, 5162
4756, 5124, 5125, 5164, 5163
4757, 5125, 5126, 5165, 5164
4758, 5126, 5127, 5166, 5165
4759, 5127, 5128, 5167, 5166
4760, 5128,  165,  166, 5167
4761,  206, 5129,  205,    4
4762, 5129, 5130,  204,  205
4763, 5130, 5131,  203,  204
4764, 5131, 5132,  202,  203
4765, 5132, 5133,  201,  202
4766, 5133, 5134,  200,  201
4767, 5134, 5135,  199,  200
4768, 5135, 5136,  198,  199
4769, 5136, 5137,  197,  198
4770, 5137, 5138,  196,  197
4771, 5138, 5139,  195,  196
4772, 5139, 5140,  194,  195
4773, 5140, 5141,  193,  194
4774, 5141, 5142,  192,  193
4775, 5142, 5143,  191,  192
4776, 5143, 5144,  190,  191
4777, 5144, 5145,  189,  190
4778, 5145, 5146,  188,  189
4779, 5146, 5147,  187,  188
4780, 5147, 5148,  186,  187
4781, 5148, 5149,  185,  186
4782, 5149, 5150,  184,  185
4783, 5150, 5151,  183,  184
4784, 5151, 5152,  182,  183
4785, 5152, 5153,  181,  182
4786, 5153, 5154,  180,  181
4787, 5154, 5155,  179,  180
4788, 5155, 5156,  178,  179
4789, 5156, 5157,  177,  178
4790, 5157, 5158,  176,  177
4791, 5158, 5159,  175,  176
4792, 5159, 5160,  174,  175
4793, 5160, 5161,  173,  174
4794, 5161, 5162,  172,  173
4795, 5162, 5163,  171,  172
4796, 5163, 5164,  170,  171
4797, 5164, 5165,  169,  170
4798, 5165, 5166,  168,  169
4799, 5166, 5167,  167,  168
4800, 5167,  166,    3,  167
4801,    4,  205, 5168,  425
4802,  205,  204, 5169, 5168
4803,  204,  203, 5170, 5169
4804,  203,  202, 5171, 5170
4805,  202,  201, 5172, 5171
4806,  201,  200, 5173, 5172
4807,  200,  199, 5174, 5173
4808,  199,  198, 5175, 5174
4809,  198,  197, 5176, 5175
4810,  197,  196, 5177, 5176
4811,  196,  195, 5178, 5177
4812,  195,  194, 5179, 5178
4813,  194,  193, 5180, 5179
4814,  193,  192, 5181, 5180
4815,  192,  191, 5182, 5181
4816,  191,  190, 5183, 5182
4817,  190,  189, 5184, 5183
4818,  189,  188, 5185, 5184
4819,  188,  187, 5186, 5185
4820,  187,  186, 5187, 5186
4821,  186,  185, 5188, 5187
4822,  185,  184, 5189, 5188
4823,  184,  183, 5190, 5189
4824,  183,  182, 5191, 5190
4825,  182,  181, 5192, 5191
4826,  181,  180, 5193, 5192
4827,  180,  179, 5194, 5193
4828,  179,  178, 5195, 5194
4829,  178,  177, 5196, 5195
4830,  177,  176, 5197, 5196
4831,  176,  175, 5198, 5197
4832,  175,  174, 5199, 5198
4833,  174,  173, 5200, 5199
4834,  173,  172, 5201, 5200
4835,  172,  171, 5202, 5201
4836,  171,  170, 5203, 5202
4837,  170,  169, 5204, 5203
4838,  169,  168, 5205, 5204
4839,  168,  167, 5206, 5205
4840,  167,    3,  325, 5206
4841,  425, 5168, 5207,  424
4842, 5168, 5169, 5208, 5207
4843, 5169, 5170, 5209, 5208
4844, 5170, 5171, 5210, 5209
4845, 5171, 5172, 5211, 5210
4846, 5172, 5173, 5212, 5211
4847, 5173, 5174, 5213, 5212
4848, 5174, 5175, 5214, 5213
4849, 5175, 5176, 5215, 5214
4850, 5176, 5177, 5216, 5215
4851, 5177, 5178, 5217, 5216
4852, 5178, 5179, 5218, 5217
4853, 5179, 5180, 5219, 5218
4854, 5180, 5181, 5220, 5219
4855, 5181, 5182, 5221, 5220
4856, 5182, 5183, 5222, 5221
4857, 5183, 5184, 5223, 5222
4858, 5184, 5185, 5224, 5223
4859, 5185, 5186, 5225, 5224
4860, 5186, 5187, 5226, 5225
4861, 5187, 5188, 5227, 5226
4862, 5188, 5189, 5228, 5227
4863, 5189, 5190, 5229, 5228
4864, 5190, 5191, 5230, 5229
4865, 5191, 5192, 5231, 5230
4866, 5192, 5193, 5232, 5231
4867, 5193, 5194, 5233, 5232
4868, 5194, 5195, 5234, 5233
4869, 5195, 5196, 5235, 5234
4870, 5196, 5197, 5236, 5235
4871, 5197, 5198, 5237, 5236
4872, 5198, 5199, 5238, 5237
4873, 5199, 5200, 5239, 5238
4874, 5200, 5201, 5240, 5239
4875, 5201, 5202, 5241, 5240
4876, 5202, 5203, 5242, 5241
4877, 5203, 5204, 5243, 5242
4878, 5204, 5205, 5244, 5243
4879, 5205, 5206, 5245, 5244
4880, 5206,  325,  326, 5245
4881,  424, 5207, 5246,  423
4882, 5207, 5208, 5247, 5246
4883, 5208, 5209, 5248, 5247
4884, 5209, 5210, 5249, 5248
4885, 5210, 5211, 5250, 5249
4886, 5211, 5212, 5251, 5250
4887, 5212, 5213, 5252, 5251
4888, 5213, 5214, 5253, 5252
4889, 5214, 5215, 5254, 5253
4890, 5215, 5216, 5255, 5254
4891, 5216, 5217, 5256, 5255
4892, 5217, 5218, 5257, 5256
4893, 5218, 5219, 5258, 5257
4894, 5219, 5220, 5259, 5258
4895, 5220, 5221, 5260, 5259
4896, 5221, 5222, 5261, 5260
4897, 5222, 5223, 5262, 5261
4898, 5223, 5224, 5263, 5262
4899, 5224, 5225, 5264, 5263
4900, 5225, 5226, 5265, 5264
4901, 5226, 5227, 5266, 5265
4902, 5227, 5228, 5267, 5266
4903, 5228, 5229, 5268, 5267
4904, 5229, 5230, 5269, 5268
4905, 5230, 5231, 5270, 5269
4906, 5231, 5232, 5271, 5270
4907, 5232, 5233, 5272, 5271
4908, 5233, 5234, 5273, 5272
4909, 5234, 5235, 5274, 5273
4910, 5235, 5236, 5275, 5274
4911, 5236, 5237, 5276, 5275
4912, 5237, 5238, 5277, 5276
4913, 5238, 5239, 5278, 5277
4914, 5239, 5240, 5279, 5278
4915, 5240, 5241, 5280, 5279
4916, 5241, 5242, 5281, 5280
4917, 5242, 5243, 5282, 5281
4918, 5243, 5244, 5283, 5282
4919, 5244, 5245, 5284, 5283
4920, 5245,  326,  327, 5284
4921,  423, 5246, 5285,  422
4922, 5246, 5247, 5286, 5285
4923, 5247, 5248, 5287, 5286
4924, 5248, 5249, 5288, 5287
4925, 5249, 5250, 5289, 5288
4926, 5250, 5251, 5290, 5289
4927, 5251, 5252, 5291, 5290
4928, 5252, 5253, 5292, 5291
4929, 5253, 5254, 5293, 5292
4930, 5254, 5255, 5294, 5293
4931, 5255, 5256, 5295, 5294
4932, 5256, 5257, 5296, 5295
4933, 5257, 5258, 5297, 5296
4934, 5258, 5259, 5298, 5297
4935, 5259, 5260, 5299, 5298
4936, 5260, 5261, 5300, 5299
4937, 5261, 5262, 5301, 5300
4938, 5262, 5263, 5302, 5301
4939, 5263, 5264, 5303, 5302
4940, 5264, 5265, 5304, 5303
4941, 5265, 5266, 5305, 5304
4942, 5266, 5267, 5306, 5305
4943, 5267, 5268, 5307, 5306
4944, 5268, 5269, 5308, 5307
4945, 5269, 5270, 5309, 5308
4946, 5270, 5271, 5310, 5309
4947, 5271, 5272, 5311, 5310
4948, 5272, 5273, 5312, 5311
4949, 5273, 5274, 5313, 5312
4950, 5274, 5275, 5314, 5313
4951, 5275, 5276, 5315, 5314
4952, 5276, 5277, 5316, 5315
4953, 5277, 5278, 5317, 5316
4954, 5278, 5279, 5318, 5317
4955, 5279, 5280, 5319, 5318
4956, 5280, 5281, 5320, 5319
4957, 5281, 5282, 5321, 5320
4958, 5282, 5283, 5322, 5321
4959, 5283, 5284, 5323, 5322
4960, 5284,  327,  328, 5323
4961,  422, 5285, 5324,  421
4962, 5285, 5286, 5325, 5324
4963, 5286, 5287, 5326, 5325
4964, 5287, 5288, 5327, 5326
4965, 5288, 5289, 5328, 5327
4966, 5289, 5290, 5329, 5328
4967, 5290, 5291, 5330, 5329
4968, 5291, 5292, 5331, 5330
4969, 5292, 5293, 5332, 5331
4970, 5293, 5294, 5333, 5332
4971, 5294, 5295, 5334, 5333
4972, 5295, 5296, 5335, 5334
4973, 5296, 5297, 5336, 5335
4974, 5297, 5298, 5337, 5336
4975, 5298, 5299, 5338, 5337
4976, 5299, 5300, 5339, 5338
4977, 5300, 5301, 5340, 5339
4978, 5301, 5302, 5341, 5340
4979, 5302, 5303, 5342, 5341
4980, 5303, 5304, 5343, 5342
4981, 5304, 5305, 5344, 5343
4982, 5305, 5306, 5345, 5344
4983, 5306, 5307, 5346, 5345
4984, 5307, 5308, 5347, 5346
4985, 5308, 5309, 5348, 5347
4986, 5309, 5310, 5349, 5348
4987, 5310, 5311, 5350, 5349
4988, 5311, 5312, 5351, 5350
4989, 5312, 5313, 5352, 5351
4990, 5313, 5314, 5353, 5352
4991, 5314, 5315, 5354, 5353
4992, 5315, 5316, 5355, 5354
4993, 5316, 5317, 5356, 5355
4994, 5317, 5318, 5357, 5356
4995, 5318, 5319, 5358, 5357
4996, 5319, 5320, 5359, 5358
4997, 5320, 5321, 5360, 5359
4998, 5321, 5322, 5361, 5360
4999, 5322, 5323, 5362, 5361
5000, 5323,  328,  329, 5362
5001,  421, 5324, 5363,  420
5002, 5324, 5325, 5364, 5363
5003, 5325, 5326, 5365, 5364
5004, 5326, 5327, 5366, 5365
5005, 5327, 5328, 5367, 5366
5006, 5328, 5329, 5368, 5367
5007, 5329, 5330, 5369, 5368
5008, 5330, 5331, 5370, 5369
5009, 5331, 5332, 5371, 5370
5010, 5332, 5333, 5372, 5371
5011, 5333, 5334, 5373, 5372
5012, 5334, 5335, 5374, 5373
5013, 5335, 5336, 5375, 5374
5014, 5336, 5337, 5376, 5375
5015, 5337, 5338, 5377, 5376
5016, 5338, 5339, 5378, 5377
5017, 5339, 5340, 5379, 5378
5018, 5340, 5341, 5380, 5379
5019, 5341, 5342, 5381, 5380
5020, 5342, 5343, 5382, 5381
5021, 5343, 5344, 5383, 5382
5022, 5344, 5345, 5384, 5383
5023, 5345, 5346, 5385, 5384
5024, 5346, 5347, 5386, 5385
5025, 5347, 5348, 5387, 5386
5026, 5348, 5349, 5388, 5387
5027, 5349, 5350, 5389, 5388
5028, 5350, 5351, 5390, 5389
5029, 5351, 5352, 5391, 5390
5030, 5352, 5353, 5392, 5391
5031, 5353, 5354, 5393, 5392
5032, 5354, 5355, 5394, 5393
5033, 5355, 5356, 5395, 5394
5034, 5356, 5357, 5396, 5395
5035, 5357, 5358, 5397, 5396
5036, 5358, 5359, 5398, 5397
5037, 5359, 5360, 5399, 5398
5038, 5360, 5361, 5400, 5399
5039, 5361, 5362, 5401, 5400
5040, 5362,  329,  330, 5401
5041,  420, 5363, 5402,  419
5042, 5363, 5364, 5403, 5402
5043, 5364, 5365, 5404, 5403
5044, 5365, 5366, 5405, 5404
5045, 5366, 5367, 5406, 5405
5046, 5367, 5368, 5407, 5406
5047, 5368, 5369, 5408, 5407
5048, 5369, 5370, 5409, 5408
5049, 5370, 5371, 5410, 5409
5050, 5371, 5372, 5411, 5410
5051, 5372, 5373, 5412, 5411
5052, 5373, 5374, 5413, 5412
5053, 5374, 5375, 5414, 5413
5054, 5375, 5376, 5415, 5414
5055, 5376, 5377, 5416, 5415
5056, 5377, 5378, 5417, 5416
5057, 5378, 5379, 5418, 5417
5058, 5379, 5380, 5419, 5418
5059, 5380, 5381, 5420, 5419
5060, 5381, 5382, 5421, 5420
5061, 5382, 5383, 5422, 5421
5062, 5383, 5384, 5423, 5422
5063, 5384, 5385, 5424, 5423
5064, 5385, 5386, 5425, 5424
5065, 5386, 5387, 5426, 5425
5066, 5387, 5388, 5427, 5426
5067, 5388, 5389, 5428, 5427
5068, 5389, 5390, 5429, 5428
5069, 5390, 5391, 5430, 5429
5070, 5391, 5392, 5431, 5430
5071, 5392, 5393, 5432, 5431
5072, 5393, 5394, 5433, 5432
5073, 5394, 5395, 5434, 5433
5074, 5395, 5396, 5435, 5434
5075, 5396, 5397, 5436, 5435
5076, 5397, 5398, 5437, 5436
5077, 5398, 5399, 5438, 5437
5078, 5399, 5400, 5439, 5438
5079, 5400, 5401, 5440, 5439
5080, 5401,  330,  331, 5440
5081,  419, 5402, 5441,  418
5082, 5402, 5403, 5442, 5441
5083, 5403, 5404, 5443, 5442
5084, 5404, 5405, 5444, 5443
5085, 5405, 5406, 5445, 5444
5086, 5406, 5407, 5446, 5445
5087, 5407, 5408, 5447, 5446
5088, 5408, 5409, 5448, 5447
5089, 5409, 5410, 5449, 5448
5090, 5410, 5411, 5450, 5449
5091, 5411, 5412, 5451, 5450
5092, 5412, 5413, 5452, 5451
5093, 5413, 5414, 5453, 5452
5094, 5414, 5415, 5454, 5453
5095, 5415, 5416, 5455, 5454
5096, 5416, 5417, 5456, 5455
5097, 5417, 5418, 5457, 5456
5098, 5418, 5419, 5458, 5457
5099, 5419, 5420, 5459, 5458
5100, 5420, 5421, 5460, 5459
5101, 5421, 5422, 5461, 5460
5102, 5422, 5423, 5462, 5461
5103, 5423, 5424, 5463, 5462
5104, 5424, 5425, 5464, 5463
5105, 5425, 5426, 5465, 5464
5106, 5426, 5427, 5466, 5465
5107, 5427, 5428, 5467, 5466
5108, 5428, 5429, 5468, 5467
5109, 5429, 5430, 5469, 5468
5110, 5430, 5431, 5470, 5469
5111, 5431, 5432, 5471, 5470
5112, 5432, 5433, 5472, 5471
5113, 5433, 5434, 5473, 5472
5114, 5434, 5435, 5474, 5473
5115, 5435, 5436, 5475, 5474
5116, 5436, 5437, 5476, 5475
5117, 5437, 5438, 5477, 5476
5118, 5438, 5439, 5478, 5477
5119, 5439, 5440, 5479, 5478
5120, 5440,  331,  332, 5479
5121,  418, 5441, 5480,  417
5122, 5441, 5442, 5481, 5480
5123, 5442, 5443, 5482, 5481
5124, 5443, 5444, 5483, 5482
5125, 5444, 5445, 5484, 5483
5126, 5445, 5446, 5485, 5484
5127, 5446, 5447, 5486, 5485
5128, 5447, 5448, 5487, 5486
5129, 5448, 5449, 5488, 5487
5130, 5449, 5450, 5489, 5488
5131, 5450, 5451, 5490, 5489
5132, 5451, 5452, 5491, 5490
5133, 5452, 5453, 5492, 5491
5134, 5453, 5454, 5493, 5492
5135, 5454, 5455, 5494, 5493
5136, 5455, 5456, 5495, 5494
5137, 5456, 5457, 5496, 5495
5138, 5457, 5458, 5497, 5496
5139, 5458, 5459, 5498, 5497
5140, 5459, 5460, 5499, 5498
5141, 5460, 5461, 5500, 5499
5142, 5461, 5462, 5501, 5500
5143, 5462, 5463, 5502, 5501
5144, 5463, 5464, 5503, 5502
5145, 5464, 5465, 5504, 5503
5146, 5465, 5466, 5505, 5504
5147, 5466, 5467, 5506, 5505
5148, 5467, 5468, 5507, 5506
5149, 5468, 5469, 5508, 5507
5150, 5469, 5470, 5509, 5508
5151, 5470, 5471, 5510, 5509
5152, 5471, 5472, 5511, 5510
5153, 5472, 5473, 5512, 5511
5154, 5473, 5474, 5513, 5512
5155, 5474, 5475, 5514, 5513
5156, 5475, 5476, 5515, 5514
5157, 5476, 5477, 5516, 5515
5158, 5477, 5478, 5517, 5516
5159, 5478, 5479, 5518, 5517
5160, 5479,  332,  333, 5518
5161,  417, 5480, 5519,  416
5162, 5480, 5481, 5520, 5519
5163, 5481, 5482, 5521, 5520
5164, 5482, 5483, 5522, 5521
5165, 5483, 5484, 5523, 5522
5166, 5484, 5485, 5524, 5523
5167, 5485, 5486, 5525, 5524
5168, 5486, 5487, 5526, 5525
5169, 5487, 5488, 5527, 5526
5170, 5488, 5489, 5528, 5527
5171, 5489, 5490, 5529, 5528
5172, 5490, 5491, 5530, 5529
5173, 5491, 5492, 5531, 5530
5174, 5492, 5493, 5532, 5531
5175, 5493, 5494, 5533, 5532
5176, 5494, 5495, 5534, 5533
5177, 5495, 5496, 5535, 5534
5178, 5496, 5497, 5536, 5535
5179, 5497, 5498, 5537, 5536
5180, 5498, 5499, 5538, 5537
5181, 5499, 5500, 5539, 5538
5182, 5500, 5501, 5540, 5539
5183, 5501, 5502, 5541, 5540
5184, 5502, 5503, 5542, 5541
5185, 5503, 5504, 5543, 5542
5186, 5504, 5505, 5544, 5543
5187, 5505, 5506, 5545, 5544
5188, 5506, 5507, 5546, 5545
5189, 5507, 5508, 5547, 5546
5190, 5508, 5509, 5548, 5547
5191, 5509, 5510, 5549, 5548
5192, 5510, 5511, 5550, 5549
5193, 5511, 5512, 5551, 5550
5194, 5512, 5513, 5552, 5551
5195, 5513, 5514, 5553, 5552
5196, 5514, 5515, 5554, 5553
5197, 5515, 5516, 5555, 5554
5198, 5516, 5517, 5556, 5555
5199, 5517, 5518, 5557, 5556
5200, 5518,  333,  334, 5557
5201,  416, 5519, 5558,  415
5202, 5519, 5520, 5559, 5558
5203, 5520, 5521, 5560, 5559
5204, 5521, 5522, 5561, 5560
5205, 5522, 5523, 5562, 5561
5206, 5523, 5524, 5563, 5562
5207, 5524, 5525, 5564, 5563
5208, 5525, 5526, 5565, 5564
5209, 5526, 5527, 5566, 5565
5210, 5527, 5528, 5567, 5566
5211, 5528, 5529, 5568, 5567
5212, 5529, 5530, 5569, 5568
5213, 5530, 5531, 5570, 5569
5214, 5531, 5532, 5571, 5570
5215, 5532, 5533, 5572, 5571
5216, 5533, 5534, 5573, 5572
5217, 5534, 5535, 5574, 5573
5218, 5535, 5536, 5575, 5574
5219, 5536, 5537, 5576, 5575
5220, 5537, 5538, 5577, 5576
5221, 5538, 5539, 5578, 5577
5222, 5539, 5540, 5579, 5578
5223, 5540, 5541, 5580, 5579
5224, 5541, 5542, 5581, 5580
5225, 5542, 5543, 5582, 5581
5226, 5543, 5544, 5583, 5582
5227, 5544, 5545, 5584, 5583
5228, 5545, 5546, 5585, 5584
5229, 5546, 5547, 5586, 5585
5230, 5547, 5548, 5587, 5586
5231, 5548, 5549, 5588, 5587
5232, 5549, 5550, 5589, 5588
5233, 5550, 5551, 5590, 5589
5234, 5551, 5552, 5591, 5590
5235, 5552, 5553, 5592, 5591
5236, 5553, 5554, 5593, 5592
5237, 5554, 5555, 5594, 5593
5238, 5555, 5556, 5595, 5594
5239, 5556, 5557, 5596, 5595
5240, 5557,  334,  335, 5596
5241,  415, 5558, 5597,  414
5242, 5558, 5559, 5598, 5597
5243, 5559, 5560, 5599, 5598
5244, 5560, 5561, 5600, 5599
5245, 5561, 5562, 5601, 5600
5246, 5562, 5563, 5602, 5601
5247, 5563, 5564, 5603, 5602
5248, 5564, 5565, 5604, 5603
5249, 5565, 5566, 5605, 5604
5250, 5566, 5567, 5606, 5605
5251, 5567, 5568, 5607, 5606
5252, 5568, 5569, 5608, 5607
5253, 5569, 5570, 5609, 5608
5254, 5570, 5571, 5610, 5609
5255, 5571, 5572, 5611, 5610
5256, 5572, 5573, 5612, 5611
5257, 5573, 5574, 5613, 5612
5258, 5574, 5575, 5614, 5613
5259, 5575, 5576, 5615, 5614
5260, 5576, 5577, 5616, 5615
5261, 5577, 5578, 5617, 5616
5262, 5578, 5579, 5618, 5617
5263, 5579, 5580, 5619, 5618
5264, 5580, 5581, 5620, 5619
5265, 5581, 5582, 5621, 5620
5266, 5582, 5583, 5622, 5621
5267, 5583, 5584, 5623, 5622
5268, 5584, 5585, 5624, 5623
5269, 5585, 5586, 5625, 5624
5270, 5586, 5587, 5626, 5625
5271, 5587, 5588, 5627, 5626
5272, 5588, 5589, 5628, 5627
5273, 5589, 5590, 5629, 5628
5274, 5590, 5591, 5630, 5629
5275, 5591, 5592, 5631, 5630
5276, 5592, 5593, 5632, 5631
5277, 5593, 5594, 5633, 5632
5278, 5594, 5595, 5634, 5633
5279, 5595, 5596, 5635, 5634
5280, 5596,  335,  336, 5635
5281,  414, 5597, 5636,  413
5282, 5597, 5598, 5637, 5636
5283, 5598, 5599, 5638, 5637
5284, 5599, 5600, 5639, 5638
5285, 5600, 5601, 5640, 5639
5286, 5601, 5602, 5641, 5640
5287, 5602, 5603, 5642, 5641
5288, 5603, 5604, 5643, 5642
5289, 5604, 5605, 5644, 5643
5290, 5605, 5606, 5645, 5644
5291, 5606, 5607, 5646, 5645
5292, 5607, 5608, 5647, 5646
5293, 5608, 5609, 5648, 5647
5294, 5609, 5610, 5649, 5648
5295, 5610, 5611, 5650, 5649
5296, 5611, 5612, 5651, 5650
5297, 5612, 5613, 5652, 5651
5298, 5613, 5614, 5653, 5652
5299, 5614, 5615, 5654, 5653
5300, 5615, 5616, 5655, 5654
5301, 5616, 5617, 5656, 5655
5302, 5617, 5618, 5657, 5656
5303, 5618, 5619, 5658, 5657
5304, 5619, 5620, 5659, 5658
5305, 5620, 5621, 5660, 5659
5306, 5621, 5622, 5661, 5660
5307, 5622, 5623, 5662, 5661
5308, 5623, 5624, 5663, 5662
5309, 5624, 5625, 5664, 5663
5310, 5625, 5626, 5665, 5664
5311, 5626, 5627, 5666, 5665
5312, 5627, 5628, 5667, 5666
5313, 5628, 5629, 5668, 5667
5314, 5629, 5630, 5669, 5668
5315, 5630, 5631, 5670, 5669
5316, 5631, 5632, 5671, 5670
5317, 5632, 5633, 5672, 5671
5318, 5633, 5634, 5673, 5672
5319, 5634, 5635, 5674, 5673
5320, 5635,  336,  337, 5674
5321,  413, 5636, 5675,  412
5322, 5636, 5637, 5676, 5675
5323, 5637, 5638, 5677, 5676
5324, 5638, 5639, 5678, 5677
5325, 5639, 5640, 5679, 5678
5326, 5640, 5641, 5680, 5679
5327, 5641, 5642, 5681, 5680
5328, 5642, 5643, 5682, 5681
5329, 5643, 5644, 5683, 5682
5330, 5644, 5645, 5684, 5683
5331, 5645, 5646, 5685, 5684
5332, 5646, 5647, 5686, 5685
5333, 5647, 5648, 5687, 5686
5334, 5648, 5649, 5688, 5687
5335, 5649, 5650, 5689, 5688
5336, 5650, 5651, 5690, 5689
5337, 5651, 5652, 5691, 5690
5338, 5652, 5653, 5692, 5691
5339, 5653, 5654, 5693, 5692
5340, 5654, 5655, 5694, 5693
5341, 5655, 5656, 5695, 5694
5342, 5656, 5657, 5696, 5695
5343, 5657, 5658, 5697, 5696
5344, 5658, 5659, 5698, 5697
5345, 5659, 5660, 5699, 5698
5346, 5660, 5661, 5700, 5699
5347, 5661, 5662, 5701, 5700
5348, 5662, 5663, 5702, 5701
5349, 5663, 5664, 5703, 5702
5350, 5664, 5665, 5704, 5703
5351, 5665, 5666, 5705, 5704
5352, 5666, 5667, 5706, 5705
5353, 5667, 5668, 5707, 5706
5354, 5668, 5669, 5708, 5707
5355, 5669, 5670, 5709, 5708
5356, 5670, 5671, 5710, 5709
5357, 5671, 5672, 5711, 5710
5358, 5672, 5673, 5712, 5711
5359, 5673, 5674, 5713, 5712
5360, 5674,  337,  338, 5713
5361,  412, 5675, 5714,  411
5362, 5675, 5676, 5715, 5714
5363, 5676, 5677, 5716, 5715
5364, 5677, 5678, 5717, 5716
5365, 5678, 5679, 5718, 5717
5366, 5679, 5680, 5719, 5718
5367, 5680, 5681, 5720, 5719
5368, 5681, 5682, 5721, 5720
5369, 5682, 5683, 5722, 5721
5370, 5683, 5684, 5723, 5722
5371, 5684, 5685, 5724, 5723
5372, 5685, 5686, 5725, 5724
5373, 5686, 5687, 5726, 5725
5374, 5687, 5688, 5727, 5726
5375, 5688, 5689, 5728, 5727
5376, 5689, 5690, 5729, 5728
5377, 5690, 5691, 5730, 5729
5378, 5691, 5692, 5731, 5730
5379, 5692, 5693, 5732, 5731
5380, 5693, 5694, 5733, 5732
5381, 5694, 5695, 5734, 5733
5382, 5695, 5696, 5735, 5734
5383, 5696, 5697, 5736, 5735
5384, 5697, 5698, 5737, 5736
5385, 5698, 5699, 5738, 5737
5386, 5699, 5700, 5739, 5738
5387, 5700, 5701, 5740, 5739
5388, 5701, 5702, 5741, 5740
5389, 5702, 5703, 5742, 5741
5390, 5703, 5704, 5743, 5742
5391, 5704, 5705, 5744, 5743
5392, 5705, 5706, 5745, 5744
5393, 5706, 5707, 5746, 5745
5394, 5707, 5708, 5747, 5746
5395, 5708, 5709, 5748, 5747
5396, 5709, 5710, 5749, 5748
5397, 5710, 5711, 5750, 5749
5398, 5711, 5712, 5751, 5750
5399, 5712, 5713, 5752, 5751
5400, 5713,  338,  339, 5752
5401,  411, 5714, 5753,  410
5402, 5714, 5715, 5754, 5753
5403, 5715, 5716, 5755, 5754
5404, 5716, 5717, 5756, 5755
5405, 5717, 5718, 5757, 5756
5406, 5718, 5719, 5758, 5757
5407, 5719, 5720, 5759, 5758
5408, 5720, 5721, 5760, 5759
5409, 5721, 5722, 5761, 5760
5410, 5722, 5723, 5762, 5761
5411, 5723, 5724, 5763, 5762
5412, 5724, 5725, 5764, 5763
5413, 5725, 5726, 5765, 5764
5414, 5726, 5727, 5766, 5765
5415, 5727, 5728, 5767, 5766
5416, 5728, 5729, 5768, 5767
5417, 5729, 5730, 5769, 5768
5418, 5730, 5731, 5770, 5769
5419, 5731, 5732, 5771, 5770
5420, 5732, 5733, 5772, 5771
5421, 5733, 5734, 5773, 5772
5422, 5734, 5735, 5774, 5773
5423, 5735, 5736, 5775, 5774
5424, 5736, 5737, 5776, 5775
5425, 5737, 5738, 5777, 5776
5426, 5738, 5739, 5778, 5777
5427, 5739, 5740, 5779, 5778
5428, 5740, 5741, 5780, 5779
5429, 5741, 5742, 5781, 5780
5430, 5742, 5743, 5782, 5781
5431, 5743, 5744, 5783, 5782
5432, 5744, 5745, 5784, 5783
5433, 5745, 5746, 5785, 5784
5434, 5746, 5747, 5786, 5785
5435, 5747, 5748, 5787, 5786
5436, 5748, 5749, 5788, 5787
5437, 5749, 5750, 5789, 5788
5438, 5750, 5751, 5790, 5789
5439, 5751, 5752, 5791, 5790
5440, 5752,  339,  340, 5791
5441,  410, 5753, 5792,  409
5442, 5753, 5754, 5793, 5792
5443, 5754, 5755, 5794, 5793
5444, 5755, 5756, 5795, 5794
5445, 5756, 5757, 5796, 5795
5446, 5757, 5758, 5797, 5796
5447, 5758, 5759, 5798, 5797
5448, 5759, 5760, 5799, 5798
5449, 5760, 5761, 5800, 5799
5450, 5761, 5762, 5801, 5800
5451, 5762, 5763, 5802, 5801
5452, 5763, 5764, 5803, 5802
5453, 5764, 5765, 5804, 5803
5454, 5765, 5766, 5805, 5804
5455, 5766, 5767, 5806, 5805
5456, 5767, 5768, 5807, 5806
5457, 5768, 5769, 5808, 5807
5458, 5769, 5770, 5809, 5808
5459, 5770, 5771, 5810, 5809
5460, 5771, 5772, 5811, 5810
5461, 5772, 5773, 5812, 5811
5462, 5773, 5774, 5813, 5812
5463, 5774, 5775, 5814, 5813
5464, 5775, 5776, 5815, 5814
5465, 5776, 5777, 5816, 5815
5466, 5777, 5778, 5817, 5816
5467, 5778, 5779, 5818, 5817
5468, 5779, 5780, 5819, 5818
5469, 5780, 5781, 5820, 5819
5470, 5781, 5782, 5821, 5820
5471, 5782, 5783, 5822, 5821
5472, 5783, 5784, 5823, 5822
5473, 5784, 5785, 5824, 5823
5474, 5785, 5786, 5825, 5824
5475, 5786, 5787, 5826, 5825
5476, 5787, 5788, 5827, 5826
5477, 5788, 5789, 5828, 5827
5478, 5789, 5790, 5829, 5828
5479, 5790, 5791, 5830, 5829
5480, 5791,  340,  341, 5830
5481,  409, 5792, 5831,  408
5482, 5792, 5793, 5832, 5831
5483, 5793, 5794, 5833, 5832
5484, 5794, 5795, 5834, 5833
5485, 5795, 5796, 5835, 5834
5486, 5796, 5797, 5836, 5835
5487, 5797, 5798, 5837, 5836
5488, 5798, 5799, 5838, 5837
5489, 5799, 5800, 5839, 5838
5490, 5800, 5801, 5840, 5839
5491, 5801, 5802, 5841, 5840
5492, 5802, 5803, 5842, 5841
5493, 5803, 5804, 5843, 5842
5494, 5804, 5805, 5844, 5843
5495, 5805, 5806, 5845, 5844
5496, 5806, 5807, 5846, 5845
5497, 5807, 5808, 5847, 5846
5498, 5808, 5809, 5848, 5847
5499, 5809, 5810, 5849, 5848
5500, 5810, 5811, 5850, 5849
5501, 5811, 5812, 5851, 5850
5502, 5812, 5813, 5852, 5851
5503, 5813, 5814, 5853, 5852
5504, 5814, 5815, 5854, 5853
5505, 5815, 5816, 5855, 5854
5506, 5816, 5817, 5856, 5855
5507, 5817, 5818, 5857, 5856
5508, 5818, 5819, 5858, 5857
5509, 5819, 5820, 5859, 5858
5510, 5820, 5821, 5860, 5859
5511, 5821, 5822, 5861, 5860
5512, 5822, 5823, 5862, 5861
5513, 5823, 5824, 5863, 5862
5514, 5824, 5825, 5864, 5863
5515, 5825, 5826, 5865, 5864
5516, 5826, 5827, 5866, 5865
5517, 5827, 5828, 5867, 5866
5518, 5828, 5829, 5868, 5867
5519, 5829, 5830, 5869, 5868
5520, 5830,  341,  342, 5869
5521,  408, 5831, 5870,  407
5522, 5831, 5832, 5871, 5870
5523, 5832, 5833, 5872, 5871
5524, 5833, 5834, 5873, 5872
5525, 5834, 5835, 5874, 5873
5526, 5835, 5836, 5875, 5874
5527, 5836, 5837, 5876, 5875
5528, 5837, 5838, 5877, 5876
5529, 5838, 5839, 5878, 5877
5530, 5839, 5840, 5879, 5878
5531, 5840, 5841, 5880, 5879
5532, 5841, 5842, 5881, 5880
5533, 5842, 5843, 5882, 5881
5534, 5843, 5844, 5883, 5882
5535, 5844, 5845, 5884, 5883
5536, 5845, 5846, 5885, 5884
5537, 5846, 5847, 5886, 5885
5538, 5847, 5848, 5887, 5886
5539, 5848, 5849, 5888, 5887
5540, 5849, 5850, 5889, 5888
5541, 5850, 5851, 5890, 5889
5542, 5851, 5852, 5891, 5890
5543, 5852, 5853, 5892, 5891
5544, 5853, 5854, 5893, 5892
5545, 5854, 5855, 5894, 5893
5546, 5855, 5856, 5895, 5894
5547, 5856, 5857, 5896, 5895
5548, 5857, 5858, 5897, 5896
5549, 5858, 5859, 5898, 5897
5550, 5859, 5860, 5899, 5898
5551, 5860, 5861, 5900, 5899
5552, 5861, 5862, 5901, 5900
5553, 5862, 5863, 5902, 5901
5554, 5863, 5864, 5903, 5902
5555, 5864, 5865, 5904, 5903
5556, 5865, 5866, 5905, 5904
5557, 5866, 5867, 5906, 5905
5558, 5867, 5868, 5907, 5906
5559, 5868, 5869, 5908, 5907
5560, 5869,  342,  343, 5908
5561,  407, 5870, 5909,  406
5562, 5870, 5871, 5910, 5909
5563, 5871, 5872, 5911, 5910
5564, 5872, 5873, 5912, 5911
5565, 5873, 5874, 5913, 5912
5566, 5874, 5875, 5914, 5913
5567, 5875, 5876, 5915, 5914
5568, 5876, 5877, 5916, 5915
5569, 5877, 5878, 5917, 5916
5570, 5878, 5879, 5918, 5917
5571, 5879, 5880, 5919, 5918
5572, 5880, 5881, 5920, 5919
5573, 5881, 5882, 5921, 5920
5574, 5882, 5883, 5922, 5921
5575, 5883, 5884, 5923, 5922
5576, 5884, 5885, 5924, 5923
5577, 5885, 5886, 5925, 5924
5578, 5886, 5887, 5926, 5925
5579, 5887, 5888, 5927, 5926
5580, 5888, 5889, 5928, 5927
5581, 5889, 5890, 5929, 5928
5582, 5890, 5891, 5930, 5929
5583, 5891, 5892, 5931, 5930
5584, 5892, 5893, 5932, 5931
5585, 5893, 5894, 5933, 5932
5586, 5894, 5895, 5934, 5933
5587, 5895, 5896, 5935, 5934
5588, 5896, 5897, 5936, 5935
5589, 5897, 5898, 5937, 5936
5590, 5898, 5899, 5938, 5937
5591, 5899, 5900, 5939, 5938
5592, 5900, 5901, 5940, 5939
5593, 5901, 5902, 5941, 5940
5594, 5902, 5903, 5942, 5941
5595, 5903, 5904, 5943, 5942
5596, 5904, 5905, 5944, 5943
5597, 5905, 5906, 5945, 5944
5598, 5906, 5907, 5946, 5945
5599, 5907, 5908, 5947, 5946
5600, 5908,  343,  344, 5947
5601,  406, 5909, 5948,  405
5602, 5909, 5910, 5949, 5948
5603, 5910, 5911, 5950, 5949
5604, 5911, 5912, 5951, 5950
5605, 5912, 5913, 5952, 5951
5606, 5913, 5914, 5953, 5952
5607, 5914, 5915, 5954, 5953
5608, 5915, 5916, 5955, 5954
5609, 5916, 5917, 5956, 5955
5610, 5917, 5918, 5957, 5956
5611, 5918, 5919, 5958, 5957
5612, 5919, 5920, 5959, 5958
5613, 5920, 5921, 5960, 5959
5614, 5921, 5922, 5961, 5960
5615, 5922, 5923, 5962, 5961
5616, 5923, 5924, 5963, 5962
5617, 5924, 5925, 5964, 5963
5618, 5925, 5926, 5965, 5964
5619, 5926, 5927, 5966, 5965
5620, 5927, 5928, 5967, 5966
5621, 5928, 5929, 5968, 5967
5622, 5929, 5930, 5969, 5968
5623, 5930, 5931, 5970, 5969
5624, 5931, 5932, 5971, 5970
5625, 5932, 5933, 5972, 5971
5626, 5933, 5934, 5973, 5972
5627, 5934, 5935, 5974, 5973
5628, 5935, 5936, 5975, 5974
5629, 5936, 5937, 5976, 5975
5630, 5937, 5938, 5977, 5976
5631, 5938, 5939, 5978, 5977
5632, 5939, 5940, 5979, 5978
5633, 5940, 5941, 5980, 5979
5634, 5941, 5942, 5981, 5980
5635, 5942, 5943, 5982, 5981
5636, 5943, 5944, 5983, 5982
5637, 5944, 5945, 5984, 5983
5638, 5945, 5946, 5985, 5984
5639, 5946, 5947, 5986, 5985
5640, 5947,  344,  345, 5986
5641,  405, 5948, 5987,  404
5642, 5948, 5949, 5988, 5987
5643, 5949, 5950, 5989, 5988
5644, 5950, 5951, 5990, 5989
5645, 5951, 5952, 5991, 5990
5646, 5952, 5953, 5992, 5991
5647, 5953, 5954, 5993, 5992
5648, 5954, 5955, 5994, 5993
5649, 5955, 5956, 5995, 5994
5650, 5956, 5957, 5996, 5995
5651, 5957, 5958, 5997, 5996
5652, 5958, 5959, 5998, 5997
5653, 5959, 5960, 5999, 5998
5654, 5960, 5961, 6000, 5999
5655, 5961, 5962, 6001, 6000
5656, 5962, 5963, 6002, 6001
5657, 5963, 5964, 6003, 6002
5658, 5964, 5965, 6004, 6003
5659, 5965, 5966, 6005, 6004
5660, 5966, 5967, 6006, 6005
5661, 5967, 5968, 6007, 6006
5662, 5968, 5969, 6008, 6007
5663, 5969, 5970, 6009, 6008
5664, 5970, 5971, 6010, 6009
5665, 5971, 5972, 6011, 6010
5666, 5972, 5973, 6012, 6011
5667, 5973, 5974, 6013, 6012
5668, 5974, 5975, 6014, 6013
5669, 5975, 5976, 6015, 6014
5670, 5976, 5977, 6016, 6015
5671, 5977, 5978, 6017, 6016
5672, 5978, 5979, 6018, 6017
5673, 5979, 5980, 6019, 6018
5674, 5980, 5981, 6020, 6019
5675, 5981, 5982, 6021, 6020
5676, 5982, 5983, 6022, 6021
5677, 5983, 5984, 6023, 6022
5678, 5984, 5985, 6024, 6023
5679, 5985, 5986, 6025, 6024
5680, 5986,  345,  346, 6025
5681,  404, 5987, 6026,  403
5682, 5987, 5988, 6027, 6026
5683, 5988, 5989, 6028, 6027
5684, 5989, 5990, 6029, 6028
5685, 5990, 5991, 6030, 6029
5686, 5991, 5992, 6031, 6030
5687, 5992, 5993, 6032, 6031
5688, 5993, 5994, 6033, 6032
5689, 5994, 5995, 6034, 6033
5690, 5995, 5996, 6035, 6034
5691, 5996, 5997, 6036, 6035
5692, 5997, 5998, 6037, 6036
5693, 5998, 5999, 6038, 6037
5694, 5999, 6000, 6039, 6038
5695, 6000, 6001, 6040, 6039
5696, 6001, 6002, 6041, 6040
5697, 6002, 6003, 6042, 6041
5698, 6003, 6004, 6043, 6042
5699, 6004, 6005, 6044, 6043
5700, 6005, 6006, 6045, 6044
5701, 6006, 6007, 6046, 6045
5702, 6007, 6008, 6047, 6046
5703, 6008, 6009, 6048, 6047
5704, 6009, 6010, 6049, 6048
5705, 6010, 6011, 6050, 6049
5706, 6011, 6012, 6051, 6050
5707, 6012, 6013, 6052, 6051
5708, 6013, 6014, 6053, 6052
5709, 6014, 6015, 6054, 6053
5710, 6015, 6016, 6055, 6054
5711, 6016, 6017, 6056, 6055
5712, 6017, 6018, 6057, 6056
5713, 6018, 6019, 6058, 6057
5714, 6019, 6020, 6059, 6058
5715, 6020, 6021, 6060, 6059
5716, 6021, 6022, 6061, 6060
5717, 6022, 6023, 6062, 6061
5718, 6023, 6024, 6063, 6062
5719, 6024, 6025, 6064, 6063
5720, 6025,  346,  347, 6064
5721,  403, 6026, 6065,  402
5722, 6026, 6027, 6066, 6065
5723, 6027, 6028, 6067, 6066
5724, 6028, 6029, 6068, 6067
5725, 6029, 6030, 6069, 6068
5726, 6030, 6031, 6070, 6069
5727, 6031, 6032, 6071, 6070
5728, 6032, 6033, 6072, 6071
5729, 6033, 6034, 6073, 6072
5730, 6034, 6035, 6074, 6073
5731, 6035, 6036, 6075, 6074
5732, 6036, 6037, 6076, 6075
5733, 6037, 6038, 6077, 6076
5734, 6038, 6039, 6078, 6077
5735, 6039, 6040, 6079, 6078
5736, 6040, 6041, 6080, 6079
5737, 6041, 6042, 6081, 6080
5738, 6042, 6043, 6082, 6081
5739, 6043, 6044, 6083, 6082
5740, 6044, 6045, 6084, 6083
5741, 6045, 6046, 6085, 6084
5742, 6046, 6047, 6086, 6085
5743, 6047, 6048, 6087, 6086
5744, 6048, 6049, 6088, 6087
5745, 6049, 6050, 6089, 6088
5746, 6050, 6051, 6090, 6089
5747, 6051, 6052, 6091, 6090
5748, 6052, 6053, 6092, 6091
5749, 6053, 6054, 6093, 6092
5750, 6054, 6055, 6094, 6093
5751, 6055, 6056, 6095, 6094
5752, 6056, 6057, 6096, 6095
5753, 6057, 6058, 6097, 6096
5754, 6058, 6059, 6098, 6097
5755, 6059, 6060, 6099, 6098
5756, 6060, 6061, 6100, 6099
5757, 6061, 6062, 6101, 6100
5758, 6062, 6063, 6102, 6101
5759, 6063, 6064, 6103, 6102
5760, 6064,  347,  348, 6103
5761,  402, 6065, 6104,  401
5762, 6065, 6066, 6105, 6104
5763, 6066, 6067, 6106, 6105
5764, 6067, 6068, 6107, 6106
5765, 6068, 6069, 6108, 6107
5766, 6069, 6070, 6109, 6108
5767, 6070, 6071, 6110, 6109
5768, 6071, 6072, 6111, 6110
5769, 6072, 6073, 6112, 6111
5770, 6073, 6074, 6113, 6112
5771, 6074, 6075, 6114, 6113
5772, 6075, 6076, 6115, 6114
5773, 6076, 6077, 6116, 6115
5774, 6077, 6078, 6117, 6116
5775, 6078, 6079, 6118, 6117
5776, 6079, 6080, 6119, 6118
5777, 6080, 6081, 6120, 6119
5778, 6081, 6082, 6121, 6120
5779, 6082, 6083, 6122, 6121
5780, 6083, 6084, 6123, 6122
5781, 6084, 6085, 6124, 6123
5782, 6085, 6086, 6125, 6124
5783, 6086, 6087, 6126, 6125
5784, 6087, 6088, 6127, 6126
5785, 6088, 6089, 6128, 6127
5786, 6089, 6090, 6129, 6128
5787, 6090, 6091, 6130, 6129
5788, 6091, 6092, 6131, 6130
5789, 6092, 6093, 6132, 6131
5790, 6093, 6094, 6133, 6132
5791, 6094, 6095, 6134, 6133
5792, 6095, 6096, 6135, 6134
5793, 6096, 6097, 6136, 6135
5794, 6097, 6098, 6137, 6136
5795, 6098, 6099, 6138, 6137
5796, 6099, 6100, 6139, 6138
5797, 6100, 6101, 6140, 6139
5798, 6101, 6102, 6141, 6140
5799, 6102, 6103, 6142, 6141
5800, 6103,  348,  349, 6142
5801,  401, 6104, 6143,  400
5802, 6104, 6105, 6144, 6143
5803, 6105, 6106, 6145, 6144
5804, 6106, 6107, 6146, 6145
5805, 6107, 6108, 6147, 6146
5806, 6108, 6109, 6148, 6147
5807, 6109, 6110, 6149, 6148
5808, 6110, 6111, 6150, 6149
5809, 6111, 6112, 6151, 6150
5810, 6112, 6113, 6152, 6151
5811, 6113, 6114, 6153, 6152
5812, 6114, 6115, 6154, 6153
5813, 6115, 6116, 6155, 6154
5814, 6116, 6117, 6156, 6155
5815, 6117, 6118, 6157, 6156
5816, 6118, 6119, 6158, 6157
5817, 6119, 6120, 6159, 6158
5818, 6120, 6121, 6160, 6159
5819, 6121, 6122, 6161, 6160
5820, 6122, 6123, 6162, 6161
5821, 6123, 6124, 6163, 6162
5822, 6124, 6125, 6164, 6163
5823, 6125, 6126, 6165, 6164
5824, 6126, 6127, 6166, 6165
5825, 6127, 6128, 6167, 6166
5826, 6128, 6129, 6168, 6167
5827, 6129, 6130, 6169, 6168
5828, 6130, 6131, 6170, 6169
5829, 6131, 6132, 6171, 6170
5830, 6132, 6133, 6172, 6171
5831, 6133, 6134, 6173, 6172
5832, 6134, 6135, 6174, 6173
5833, 6135, 6136, 6175, 6174
5834, 6136, 6137, 6176, 6175
5835, 6137, 6138, 6177, 6176
5836, 6138, 6139, 6178, 6177
5837, 6139, 6140, 6179, 6178
5838, 6140, 6141, 6180, 6179
5839, 6141, 6142, 6181, 6180
5840, 6142,  349,  350, 6181
5841,  400, 6143, 6182,  399
5842, 6143, 6144, 6183, 6182
5843, 6144, 6145, 6184, 6183
5844, 6145, 6146, 6185, 6184
5845, 6146, 6147, 6186, 6185
5846, 6147, 6148, 6187, 6186
5847, 6148, 6149, 6188, 6187
5848, 6149, 6150, 6189, 6188
5849, 6150, 6151, 6190, 6189
5850, 6151, 6152, 6191, 6190
5851, 6152, 6153, 6192, 6191
5852, 6153, 6154, 6193, 6192
5853, 6154, 6155, 6194, 6193
5854, 6155, 6156, 6195, 6194
5855, 6156, 6157, 6196, 6195
5856, 6157, 6158, 6197, 6196
5857, 6158, 6159, 6198, 6197
5858, 6159, 6160, 6199, 6198
5859, 6160, 6161, 6200, 6199
5860, 6161, 6162, 6201, 6200
5861, 6162, 6163, 6202, 6201
5862, 6163, 6164, 6203, 6202
5863, 6164, 6165, 6204, 6203
5864, 6165, 6166, 6205, 6204
5865, 6166, 6167, 6206, 6205
5866, 6167, 6168, 6207, 6206
5867, 6168, 6169, 6208, 6207
5868, 6169, 6170, 6209, 6208
5869, 6170, 6171, 6210, 6209
5870, 6171, 6172, 6211, 6210
5871, 6172, 6173, 6212, 6211
5872, 6173, 6174, 6213, 6212
5873, 6174, 6175, 6214, 6213
5874, 6175, 6176, 6215, 6214
5875, 6176, 6177, 6216, 6215
5876, 6177, 6178, 6217, 6216
5877, 6178, 6179, 6218, 6217
5878, 6179, 6180, 6219, 6218
5879, 6180, 6181, 6220, 6219
5880, 6181,  350,  351, 6220
5881,  399, 6182, 6221,  398
5882, 6182, 6183, 6222, 6221
5883, 6183, 6184, 6223, 6222
5884, 6184, 6185, 6224, 6223
5885, 6185, 6186, 6225, 6224
5886, 6186, 6187, 6226, 6225
5887, 6187, 6188, 6227, 6226
5888, 6188, 6189, 6228, 6227
5889, 6189, 6190, 6229, 6228
5890, 6190, 6191, 6230, 6229
5891, 6191, 6192, 6231, 6230
5892, 6192, 6193, 6232, 6231
5893, 6193, 6194, 6233, 6232
5894, 6194, 6195, 6234, 6233
5895, 6195, 6196, 6235, 6234
5896, 6196, 6197, 6236, 6235
5897, 6197, 6198, 6237, 6236
5898, 6198, 6199, 6238, 6237
5899, 6199, 6200, 6239, 6238
5900, 6200, 6201, 6240, 6239
5901, 6201, 6202, 6241, 6240
5902, 6202, 6203, 6242, 6241
5903, 6203, 6204, 6243, 6242
5904, 6204, 6205, 6244, 6243
5905, 6205, 6206, 6245, 6244
5906, 6206, 6207, 6246, 6245
5907, 6207, 6208, 6247, 6246
5908, 6208, 6209, 6248, 6247
5909, 6209, 6210, 6249, 6248
5910, 6210, 6211, 6250, 6249
5911, 6211, 6212, 6251, 6250
5912, 6212, 6213, 6252, 6251
5913, 6213, 6214, 6253, 6252
5914, 6214, 6215, 6254, 6253
5915, 6215, 6216, 6255, 6254
5916, 6216, 6217, 6256, 6255
5917, 6217, 6218, 6257, 6256
5918, 6218, 6219, 6258, 6257
5919, 6219, 6220, 6259, 6258
5920, 6220,  351,  352, 6259
5921,  398, 6221, 6260,  397
5922, 6221, 6222, 6261, 6260
5923, 6222, 6223, 6262, 6261
5924, 6223, 6224, 6263, 6262
5925, 6224, 6225, 6264, 6263
5926, 6225, 6226, 6265, 6264
5927, 6226, 6227, 6266, 6265
5928, 6227, 6228, 6267, 6266
5929, 6228, 6229, 6268, 6267
5930, 6229, 6230, 6269, 6268
5931, 6230, 6231, 6270, 6269
5932, 6231, 6232, 6271, 6270
5933, 6232, 6233, 6272, 6271
5934, 6233, 6234, 6273, 6272
5935, 6234, 6235, 6274, 6273
5936, 6235, 6236, 6275, 6274
5937, 6236, 6237, 6276, 6275
5938, 6237, 6238, 6277, 6276
5939, 6238, 6239, 6278, 6277
5940, 6239, 6240, 6279, 6278
5941, 6240, 6241, 6280, 6279
5942, 6241, 6242, 6281, 6280
5943, 6242, 6243, 6282, 6281
5944, 6243, 6244, 6283, 6282
5945, 6244, 6245, 6284, 6283
5946, 6245, 6246, 6285, 6284
5947, 6246, 6247, 6286, 6285
5948, 6247, 6248, 6287, 6286
5949, 6248, 6249, 6288, 6287
5950, 6249, 6250, 6289, 6288
5951, 6250, 6251, 6290, 6289
5952, 6251, 6252, 6291, 6290
5953, 6252, 6253, 6292, 6291
5954, 6253, 6254, 6293, 6292
5955, 6254, 6255, 6294, 6293
5956, 6255, 6256, 6295, 6294
5957, 6256, 6257, 6296, 6295
5958, 6257, 6258, 6297, 6296
5959, 6258, 6259, 6298, 6297
5960, 6259,  352,  353, 6298
5961,  397, 6260, 6299,  396
5962, 6260, 6261, 6300, 6299
5963, 6261, 6262, 6301, 6300
5964, 6262, 6263, 6302, 6301
5965, 6263, 6264, 6303, 6302
5966, 6264, 6265, 6304, 6303
5967, 6265, 6266, 6305, 6304
5968, 6266, 6267, 6306, 6305
5969, 6267, 6268, 6307, 6306
5970, 6268, 6269, 6308, 6307
5971, 6269, 6270, 6309, 6308
5972, 6270, 6271, 6310, 6309
5973, 6271, 6272, 6311, 6310
5974, 6272, 6273, 6312, 6311
5975, 6273, 6274, 6313, 6312
5976, 6274, 6275, 6314, 6313
5977, 6275, 6276, 6315, 6314
5978, 6276, 6277, 6316, 6315
5979, 6277, 6278, 6317, 6316
5980, 6278, 6279, 6318, 6317
5981, 6279, 6280, 6319, 6318
5982, 6280, 6281, 6320, 6319
5983, 6281, 6282, 6321, 6320
5984, 6282, 6283, 6322, 6321
5985, 6283, 6284, 6323, 6322
5986, 6284, 6285, 6324, 6323
5987, 6285, 6286, 6325, 6324
5988, 6286, 6287, 6326, 6325
5989, 6287, 6288, 6327, 6326
5990, 6288, 6289, 6328, 6327
5991, 6289, 6290, 6329, 6328
5992, 6290, 6291, 6330, 6329
5993, 6291, 6292, 6331, 6330
5994, 6292, 6293, 6332, 6331
5995, 6293, 6294, 6333, 6332
5996, 6294, 6295, 6334, 6333
5997, 6295, 6296, 6335, 6334
5998, 6296, 6297, 6336, 6335
5999, 6297, 6298, 6337, 6336
6000, 6298,  353,  354, 6337
6001,  396, 6299, 6338,  395
6002, 6299, 6300, 6339, 6338
6003, 6300, 6301, 6340, 6339
6004, 6301, 6302, 6341, 6340
6005, 6302, 6303, 6342, 6341
6006, 6303, 6304, 6343, 6342
6007, 6304, 6305, 6344, 6343
6008, 6305, 6306, 6345, 6344
6009, 6306, 6307, 6346, 6345
6010, 6307, 6308, 6347, 6346
6011, 6308, 6309, 6348, 6347
6012, 6309, 6310, 6349, 6348
6013, 6310, 6311, 6350, 6349
6014, 6311, 6312, 6351, 6350
6015, 6312, 6313, 6352, 6351
6016, 6313, 6314, 6353, 6352
6017, 6314, 6315, 6354, 6353
6018, 6315, 6316, 6355, 6354
6019, 6316, 6317, 6356, 6355
6020, 6317, 6318, 6357, 6356
6021, 6318, 6319, 6358, 6357
6022, 6319, 6320, 6359, 6358
6023, 6320, 6321, 6360, 6359
6024, 6321, 6322, 6361, 6360
6025, 6322, 6323, 6362, 6361
6026, 6323, 6324, 6363, 6362
6027, 6324, 6325, 6364, 6363
6028, 6325, 6326, 6365, 6364
6029, 6326, 6327, 6366, 6365
6030, 6327, 6328, 6367, 6366
6031, 6328, 6329, 6368, 6367
6032, 6329, 6330, 6369, 6368
6033, 6330, 6331, 6370, 6369
6034, 6331, 6332, 6371, 6370
6035, 6332, 6333, 6372, 6371
6036, 6333, 6334, 6373, 6372
6037, 6334, 6335, 6374, 6373
6038, 6335, 6336, 6375, 6374
6039, 6336, 6337, 6376, 6375
6040, 6337,  354,  355, 6376
6041,  395, 6338,  394,    6
6042, 6338, 6339,  393,  394
6043, 6339, 6340,  392,  393
6044, 6340, 6341,  391,  392
6045, 6341, 6342,  390,  391
6046, 6342, 6343,  389,  390
6047, 6343, 6344,  388,  389
6048, 6344, 6345,  387,  388
6049, 6345, 6346,  386,  387
6050, 6346, 6347,  385,  386
6051, 6347, 6348,  384,  385
6052, 6348, 6349,  383,  384
6053, 6349, 6350,  382,  383
6054, 6350, 6351,  381,  382
6055, 6351, 6352,  380,  381
6056, 6352, 6353,  379,  380
6057, 6353, 6354,  378,  379
6058, 6354, 6355,  377,  378
6059, 6355, 6356,  376,  377
6060, 6356, 6357,  375,  376
6061, 6357, 6358,  374,  375
6062, 6358, 6359,  373,  374
6063, 6359, 6360,  372,  373
6064, 6360, 6361,  371,  372
6065, 6361, 6362,  370,  371
6066, 6362, 6363,  369,  370
6067, 6363, 6364,  368,  369
6068, 6364, 6365,  367,  368
6069, 6365, 6366,  366,  367
6070, 6366, 6367,  365,  366
6071, 6367, 6368,  364,  365
6072, 6368, 6369,  363,  364
6073, 6369, 6370,  362,  363
6074, 6370, 6371,  361,  362
6075, 6371, 6372,  360,  361
6076, 6372, 6373,  359,  360
6077, 6373, 6374,  358,  359
6078, 6374, 6375,  357,  358
6079, 6375, 6376,  356,  357
6080, 6376,  355,    5,  356
6081,    2,   47, 6377,  526
6082,   47,   46, 6378, 6377
6083,   46,   45, 6379, 6378
6084,   45,   44, 6380, 6379
6085,   44,   43, 6381, 6380
6086,   43,   42, 6382, 6381
6087,   42,   41, 6383, 6382
6088,   41,   40, 6384, 6383
6089,   40,   39, 6385, 6384
6090,   39,   38, 6386, 6385
6091,   38,   37, 6387, 6386
6092,   37,   36, 6388, 6387
6093,   36,   35, 6389, 6388
6094,   35,   34, 6390, 6389
6095,   34,   33, 6391, 6390
6096,   33,   32, 6392, 6391
6097,   32,   31, 6393, 6392
6098,   31,   30, 6394, 6393
6099,   30,   29, 6395, 6394
6100,   29,   28, 6396, 6395
6101,   28,   27, 6397, 6396
6102,   27,   26, 6398, 6397
6103,   26,   25, 6399, 6398
6104,   25,   24, 6400, 6399
6105,   24,   23, 6401, 6400
6106,   23,   22, 6402, 6401
6107,   22,   21, 6403, 6402
6108,   21,   20, 6404, 6403
6109,   20,   19, 6405, 6404
6110,   19,   18, 6406, 6405
6111,   18,   17, 6407, 6406
6112,   17,   16, 6408, 6407
6113,   16,   15, 6409, 6408
6114,   15,   14, 6410, 6409
6115,   14,   13, 6411, 6410
6116,   13,   12, 6412, 6411
6117,   12,   11, 6413, 6412
6118,   11,   10, 6414, 6413
6119,   10,    9, 6415, 6414
6120,    9,    1,  426, 6415
6121,  526, 6377, 6416,  525
6122, 6377, 6378, 6417, 6416
6123, 6378, 6379, 6418, 6417
6124, 6379, 6380, 6419, 6418
6125, 6380, 6381, 6420, 6419
6126, 6381, 6382, 6421, 6420
6127, 6382, 6383, 6422, 6421
6128, 6383, 6384, 6423, 6422
6129, 6384, 6385, 6424, 6423
6130, 6385, 6386, 6425, 6424
6131, 6386, 6387, 6426, 6425
6132, 6387, 6388, 6427, 6426
6133, 6388, 6389, 6428, 6427
6134, 6389, 6390, 6429, 6428
6135, 6390, 6391, 6430, 6429
6136, 6391, 6392, 6431, 6430
6137, 6392, 6393, 6432, 6431
6138, 6393, 6394, 6433, 6432
6139, 6394, 6395, 6434, 6433
6140, 6395, 6396, 6435, 6434
6141, 6396, 6397, 6436, 6435
6142, 6397, 6398, 6437, 6436
6143, 6398, 6399, 6438, 6437
6144, 6399, 6400, 6439, 6438
6145, 6400, 6401, 6440, 6439
6146, 6401, 6402, 6441, 6440
6147, 6402, 6403, 6442, 6441
6148, 6403, 6404, 6443, 6442
6149, 6404, 6405, 6444, 6443
6150, 6405, 6406, 6445, 6444
6151, 6406, 6407, 6446, 6445
6152, 6407, 6408, 6447, 6446
6153, 6408, 6409, 6448, 6447
6154, 6409, 6410, 6449, 6448
6155, 6410, 6411, 6450, 6449
6156, 6411, 6412, 6451, 6450
6157, 6412, 6413, 6452, 6451
6158, 6413, 6414, 6453, 6452
6159, 6414, 6415, 6454, 6453
6160, 6415,  426,  427, 6454
6161,  525, 6416, 6455,  524
6162, 6416, 6417, 6456, 6455
6163, 6417, 6418, 6457, 6456
6164, 6418, 6419, 6458, 6457
6165, 6419, 6420, 6459, 6458
6166, 6420, 6421, 6460, 6459
6167, 6421, 6422, 6461, 6460
6168, 6422, 6423, 6462, 6461
6169, 6423, 6424, 6463, 6462
6170, 6424, 6425, 6464, 6463
6171, 6425, 6426, 6465, 6464
6172, 6426, 6427, 6466, 6465
6173, 6427, 6428, 6467, 6466
6174, 6428, 6429, 6468, 6467
6175, 6429, 6430, 6469, 6468
6176, 6430, 6431, 6470, 6469
6177, 6431, 6432, 6471, 6470
6178, 6432, 6433, 6472, 6471
6179, 6433, 6434, 6473, 6472
6180, 6434, 6435, 6474, 6473
6181, 6435, 6436, 6475, 6474
6182, 6436, 6437, 6476, 6475
6183, 6437, 6438, 6477, 6476
6184, 6438, 6439, 6478, 6477
6185, 6439, 6440, 6479, 6478
6186, 6440, 6441, 6480, 6479
6187, 6441, 6442, 6481, 6480
6188, 6442, 6443, 6482, 6481
6189, 6443, 6444, 6483, 6482
6190, 6444, 6445, 6484, 6483
6191, 6445, 6446, 6485, 6484
6192, 6446, 6447, 6486, 6485
6193, 6447, 6448, 6487, 6486
6194, 6448, 6449, 6488, 6487
6195, 6449, 6450, 6489, 6488
6196, 6450, 6451, 6490, 6489
6197, 6451, 6452, 6491, 6490
6198, 6452, 6453, 6492, 6491
6199, 6453, 6454, 6493, 6492
6200, 6454,  427,  428, 6493
6201,  524, 6455, 6494,  523
6202, 6455, 6456, 6495, 6494
6203, 6456, 6457, 6496, 6495
6204, 6457, 6458, 6497, 6496
6205, 6458, 6459, 6498, 6497
6206, 6459, 6460, 6499, 6498
6207, 6460, 6461, 6500, 6499
6208, 6461, 6462, 6501, 6500
6209, 6462, 6463, 6502, 6501
6210, 6463, 6464, 6503, 6502
6211, 6464, 6465, 6504, 6503
6212, 6465, 6466, 6505, 6504
6213, 6466, 6467, 6506, 6505
6214, 6467, 6468, 6507, 6506
6215, 6468, 6469, 6508, 6507
6216, 6469, 6470, 6509, 6508
6217, 6470, 6471, 6510, 6509
6218, 6471, 6472, 6511, 6510
6219, 6472, 6473, 6512, 6511
6220, 6473, 6474, 6513, 6512
6221, 6474, 6475, 6514, 6513
6222, 6475, 6476, 6515, 6514
6223, 6476, 6477, 6516, 6515
6224, 6477, 6478, 6517, 6516
6225, 6478, 6479, 6518, 6517
6226, 6479, 6480, 6519, 6518
6227, 6480, 6481, 6520, 6519
6228, 6481, 6482, 6521, 6520
6229, 6482, 6483, 6522, 6521
6230, 6483, 6484, 6523, 6522
6231, 6484, 6485, 6524, 6523
6232, 6485, 6486, 6525, 6524
6233, 6486, 6487, 6526, 6525
6234, 6487, 6488, 6527, 6526
6235, 6488, 6489, 6528, 6527
6236, 6489, 6490, 6529, 6528
6237, 6490, 6491, 6530, 6529
6238, 6491, 6492, 6531, 6530
6239, 6492, 6493, 6532, 6531
6240, 6493,  428,  429, 6532
6241,  523, 6494, 6533,  522
6242, 6494, 6495, 6534, 6533
6243, 6495, 6496, 6535, 6534
6244, 6496, 6497, 6536, 6535
6245, 6497, 6498, 6537, 6536
6246, 6498, 6499, 6538, 6537
6247, 6499, 6500, 6539, 6538
6248, 6500, 6501, 6540, 6539
6249, 6501, 6502, 6541, 6540
6250, 6502, 6503, 6542, 6541
6251, 6503, 6504, 6543, 6542
6252, 6504, 6505, 6544, 6543
6253, 6505, 6506, 6545, 6544
6254, 6506, 6507, 6546, 6545
6255, 6507, 6508, 6547, 6546
6256, 6508, 6509, 6548, 6547
6257, 6509, 6510, 6549, 6548
6258, 6510, 6511, 6550, 6549
6259, 6511, 6512, 6551, 6550
6260, 6512, 6513, 6552, 6551
6261, 6513, 6514, 6553, 6552
6262, 6514, 6515, 6554, 6553
6263, 6515, 6516, 6555, 6554
6264, 6516, 6517, 6556, 6555
6265, 6517, 6518, 6557, 6556
6266, 6518, 6519, 6558, 6557
6267, 6519, 6520, 6559, 6558
6268, 6520, 6521, 6560, 6559
6269, 6521, 6522, 6561, 6560
6270, 6522, 6523, 6562, 6561
6271, 6523, 6524, 6563, 6562
6272, 6524, 6525, 6564, 6563
6273, 6525, 6526, 6565, 6564
6274, 6526, 6527, 6566, 6565
6275, 6527, 6528, 6567, 6566
6276, 6528, 6529, 6568, 6567
6277, 6529, 6530, 6569, 6568
6278, 6530, 6531, 6570, 6569
6279, 6531, 6532, 6571, 6570
6280, 6532,  429,  430, 6571
6281,  522, 6533, 6572,  521
6282, 6533, 6534, 6573, 6572
6283, 6534, 6535, 6574, 6573
6284, 6535, 6536, 6575, 6574
6285, 6536, 6537, 6576, 6575
6286, 6537, 6538, 6577, 6576
6287, 6538, 6539, 6578, 6577
6288, 6539, 6540, 6579, 6578
6289, 6540, 6541, 6580, 6579
6290, 6541, 6542, 6581, 6580
6291, 6542, 6543, 6582, 6581
6292, 6543, 6544, 6583, 6582
6293, 6544, 6545, 6584, 6583
6294, 6545, 6546, 6585, 6584
6295, 6546, 6547, 6586, 6585
6296, 6547, 6548, 6587, 6586
6297, 6548, 6549, 6588, 6587
6298, 6549, 6550, 6589, 6588
6299, 6550, 6551, 6590, 6589
6300, 6551, 6552, 6591, 6590
6301, 6552, 6553, 6592, 6591
6302, 6553, 6554, 6593, 6592
6303, 6554, 6555, 6594, 6593
6304, 6555, 6556, 6595, 6594
6305, 6556, 6557, 6596, 6595
6306, 6557, 6558, 6597, 6596
6307, 6558, 6559, 6598, 6597
6308, 6559, 6560, 6599, 6598
6309, 6560, 6561, 6600, 6599
6310, 6561, 6562, 6601, 6600
6311, 6562, 6563, 6602, 6601
6312, 6563, 6564, 6603, 6602
6313, 6564, 6565, 6604, 6603
6314, 6565, 6566, 6605, 6604
6315, 6566, 6567, 6606, 6605
6316, 6567, 6568, 6607, 6606
6317, 6568, 6569, 6608, 6607
6318, 6569, 6570, 6609, 6608
6319, 6570, 6571, 6610, 6609
6320, 6571,  430,  431, 6610
6321,  521, 6572, 6611,  520
6322, 6572, 6573, 6612, 6611
6323, 6573, 6574, 6613, 6612
6324, 6574, 6575, 6614, 6613
6325, 6575, 6576, 6615, 6614
6326, 6576, 6577, 6616, 6615
6327, 6577, 6578, 6617, 6616
6328, 6578, 6579, 6618, 6617
6329, 6579, 6580, 6619, 6618
6330, 6580, 6581, 6620, 6619
6331, 6581, 6582, 6621, 6620
6332, 6582, 6583, 6622, 6621
6333, 6583, 6584, 6623, 6622
6334, 6584, 6585, 6624, 6623
6335, 6585, 6586, 6625, 6624
6336, 6586, 6587, 6626, 6625
6337, 6587, 6588, 6627, 6626
6338, 6588, 6589, 6628, 6627
6339, 6589, 6590, 6629, 6628
6340, 6590, 6591, 6630, 6629
6341, 6591, 6592, 6631, 6630
6342, 6592, 6593, 6632, 6631
6343, 6593, 6594, 6633, 6632
6344, 6594, 6595, 6634, 6633
6345, 6595, 6596, 6635, 6634
6346, 6596, 6597, 6636, 6635
6347, 6597, 6598, 6637, 6636
6348, 6598, 6599, 6638, 6637
6349, 6599, 6600, 6639, 6638
6350, 6600, 6601, 6640, 6639
6351, 6601, 6602, 6641, 6640
6352, 6602, 6603, 6642, 6641
6353, 6603, 6604, 6643, 6642
6354, 6604, 6605, 6644, 6643
6355, 6605, 6606, 6645, 6644
6356, 6606, 6607, 6646, 6645
6357, 6607, 6608, 6647, 6646
6358, 6608, 6609, 6648, 6647
6359, 6609, 6610, 6649, 6648
6360, 6610,  431,  432, 6649
6361,  520, 6611, 6650,  519
6362, 6611, 6612, 6651, 6650
6363, 6612, 6613, 6652, 6651
6364, 6613, 6614, 6653, 6652
6365, 6614, 6615, 6654, 6653
6366, 6615, 6616, 6655, 6654
6367, 6616, 6617, 6656, 6655
6368, 6617, 6618, 6657, 6656
6369, 6618, 6619, 6658, 6657
6370, 6619, 6620, 6659, 6658
6371, 6620, 6621, 6660, 6659
6372, 6621, 6622, 6661, 6660
6373, 6622, 6623, 6662, 6661
6374, 6623, 6624, 6663, 6662
6375, 6624, 6625, 6664, 6663
6376, 6625, 6626, 6665, 6664
6377, 6626, 6627, 6666, 6665
6378, 6627, 6628, 6667, 6666
6379, 6628, 6629, 6668, 6667
6380, 6629, 6630, 6669, 6668
6381, 6630, 6631, 6670, 6669
6382, 6631, 6632, 6671, 6670
6383, 6632, 6633, 6672, 6671
6384, 6633, 6634, 6673, 6672
6385, 6634, 6635, 6674, 6673
6386, 6635, 6636, 6675, 6674
6387, 6636, 6637, 6676, 6675
6388, 6637, 6638, 6677, 6676
6389, 6638, 6639, 6678, 6677
6390, 6639, 6640, 6679, 6678
6391, 6640, 6641, 6680, 6679
6392, 6641, 6642, 6681, 6680
6393, 6642, 6643, 6682, 6681
6394, 6643, 6644, 6683, 6682
6395, 6644, 6645, 6684, 6683
6396, 6645, 6646, 6685, 6684
6397, 6646, 6647, 6686, 6685
6398, 6647, 6648, 6687, 6686
6399, 6648, 6649, 6688, 6687
6400, 6649,  432,  433, 6688
6401,  519, 6650, 6689,  518
6402, 6650, 6651, 6690, 6689
6403, 6651, 6652, 6691, 6690
6404, 6652, 6653, 6692, 6691
6405, 6653, 6654, 6693, 6692
6406, 6654, 6655, 6694, 6693
6407, 6655, 6656, 6695, 6694
6408, 6656, 6657, 6696, 6695
6409, 6657, 6658, 6697, 6696
6410, 6658, 6659, 6698, 6697
6411, 6659, 6660, 6699, 6698
6412, 6660, 6661, 6700, 6699
6413, 6661, 6662, 6701, 6700
6414, 6662, 6663, 6702, 6701
6415, 6663, 6664, 6703, 6702
6416, 6664, 6665, 6704, 6703
6417, 6665, 6666, 6705, 6704
6418, 6666, 6667, 6706, 6705
6419, 6667, 6668, 6707, 6706
6420, 6668, 6669, 6708, 6707
6421, 6669, 6670, 6709, 6708
6422, 6670, 6671, 6710, 6709
6423, 6671, 6672, 6711, 6710
6424, 6672, 6673, 6712, 6711
6425, 6673, 6674, 6713, 6712
6426, 6674, 6675, 6714, 6713
6427, 6675, 6676, 6715, 6714
6428, 6676, 6677, 6716, 6715
6429, 6677, 6678, 6717, 6716
6430, 6678, 6679, 6718, 6717
6431, 6679, 6680, 6719, 6718
6432, 6680, 6681, 6720, 6719
6433, 6681, 6682, 6721, 6720
6434, 6682, 6683, 6722, 6721
6435, 6683, 6684, 6723, 6722
6436, 6684, 6685, 6724, 6723
6437, 6685, 6686, 6725, 6724
6438, 6686, 6687, 6726, 6725
6439, 6687, 6688, 6727, 6726
6440, 6688,  433,  434, 6727
6441,  518, 6689, 6728,  517
6442, 6689, 6690, 6729, 6728
6443, 6690, 6691, 6730, 6729
6444, 6691, 6692, 6731, 6730
6445, 6692, 6693, 6732, 6731
6446, 6693, 6694, 6733, 6732
6447, 6694, 6695, 6734, 6733
6448, 6695, 6696, 6735, 6734
6449, 6696, 6697, 6736, 6735
6450, 6697, 6698, 6737, 6736
6451, 6698, 6699, 6738, 6737
6452, 6699, 6700, 6739, 6738
6453, 6700, 6701, 6740, 6739
6454, 6701, 6702, 6741, 6740
6455, 6702, 6703, 6742, 6741
6456, 6703, 6704, 6743, 6742
6457, 6704, 6705, 6744, 6743
6458, 6705, 6706, 6745, 6744
6459, 6706, 6707, 6746, 6745
6460, 6707, 6708, 6747, 6746
6461, 6708, 6709, 6748, 6747
6462, 6709, 6710, 6749, 6748
6463, 6710, 6711, 6750, 6749
6464, 6711, 6712, 6751, 6750
6465, 6712, 6713, 6752, 6751
6466, 6713, 6714, 6753, 6752
6467, 6714, 6715, 6754, 6753
6468, 6715, 6716, 6755, 6754
6469, 6716, 6717, 6756, 6755
6470, 6717, 6718, 6757, 6756
6471, 6718, 6719, 6758, 6757
6472, 6719, 6720, 6759, 6758
6473, 6720, 6721, 6760, 6759
6474, 6721, 6722, 6761, 6760
6475, 6722, 6723, 6762, 6761
6476, 6723, 6724, 6763, 6762
6477, 6724, 6725, 6764, 6763
6478, 6725, 6726, 6765, 6764
6479, 6726, 6727, 6766, 6765
6480, 6727,  434,  435, 6766
6481,  517, 6728, 6767,  516
6482, 6728, 6729, 6768, 6767
6483, 6729, 6730, 6769, 6768
6484, 6730, 6731, 6770, 6769
6485, 6731, 6732, 6771, 6770
6486, 6732, 6733, 6772, 6771
6487, 6733, 6734, 6773, 6772
6488, 6734, 6735, 6774, 6773
6489, 6735, 6736, 6775, 6774
6490, 6736, 6737, 6776, 6775
6491, 6737, 6738, 6777, 6776
6492, 6738, 6739, 6778, 6777
6493, 6739, 6740, 6779, 6778
6494, 6740, 6741, 6780, 6779
6495, 6741, 6742, 6781, 6780
6496, 6742, 6743, 6782, 6781
6497, 6743, 6744, 6783, 6782
6498, 6744, 6745, 6784, 6783
6499, 6745, 6746, 6785, 6784
6500, 6746, 6747, 6786, 6785
6501, 6747, 6748, 6787, 6786
6502, 6748, 6749, 6788, 6787
6503, 6749, 6750, 6789, 6788
6504, 6750, 6751, 6790, 6789
6505, 6751, 6752, 6791, 6790
6506, 6752, 6753, 6792, 6791
6507, 6753, 6754, 6793, 6792
6508, 6754, 6755, 6794, 6793
6509, 6755, 6756, 6795, 6794
6510, 6756, 6757, 6796, 6795
6511, 6757, 6758, 6797, 6796
6512, 6758, 6759, 6798, 6797
6513, 6759, 6760, 6799, 6798
6514, 6760, 6761, 6800, 6799
6515, 6761, 6762, 6801, 6800
6516, 6762, 6763, 6802, 6801
6517, 6763, 6764, 6803, 6802
6518, 6764, 6765, 6804, 6803
6519, 6765, 6766, 6805, 6804
6520, 6766,  435,  436, 6805
6521,  516, 6767, 6806,  515
6522, 6767, 6768, 6807, 6806
6523, 6768, 6769, 6808, 6807
6524, 6769, 6770, 6809, 6808
6525, 6770, 6771, 6810, 6809
6526, 6771, 6772, 6811, 6810
6527, 6772, 6773, 6812, 6811
6528, 6773, 6774, 6813, 6812
6529, 6774, 6775, 6814, 6813
6530, 6775, 6776, 6815, 6814
6531, 6776, 6777, 6816, 6815
6532, 6777, 6778, 6817, 6816
6533, 6778, 6779, 6818, 6817
6534, 6779, 6780, 6819, 6818
6535, 6780, 6781, 6820, 6819
6536, 6781, 6782, 6821, 6820
6537, 6782, 6783, 6822, 6821
6538, 6783, 6784, 6823, 6822
6539, 6784, 6785, 6824, 6823
6540, 6785, 6786, 6825, 6824
6541, 6786, 6787, 6826, 6825
6542, 6787, 6788, 6827, 6826
6543, 6788, 6789, 6828, 6827
6544, 6789, 6790, 6829, 6828
6545, 6790, 6791, 6830, 6829
6546, 6791, 6792, 6831, 6830
6547, 6792, 6793, 6832, 6831
6548, 6793, 6794, 6833, 6832
6549, 6794, 6795, 6834, 6833
6550, 6795, 6796, 6835, 6834
6551, 6796, 6797, 6836, 6835
6552, 6797, 6798, 6837, 6836
6553, 6798, 6799, 6838, 6837
6554, 6799, 6800, 6839, 6838
6555, 6800, 6801, 6840, 6839
6556, 6801, 6802, 6841, 6840
6557, 6802, 6803, 6842, 6841
6558, 6803, 6804, 6843, 6842
6559, 6804, 6805, 6844, 6843
6560, 6805,  436,  437, 6844
6561,  515, 6806, 6845,  514
6562, 6806, 6807, 6846, 6845
6563, 6807, 6808, 6847, 6846
6564, 6808, 6809, 6848, 6847
6565, 6809, 6810, 6849, 6848
6566, 6810, 6811, 6850, 6849
6567, 6811, 6812, 6851, 6850
6568, 6812, 6813, 6852, 6851
6569, 6813, 6814, 6853, 6852
6570, 6814, 6815, 6854, 6853
6571, 6815, 6816, 6855, 6854
6572, 6816, 6817, 6856, 6855
6573, 6817, 6818, 6857, 6856
6574, 6818, 6819, 6858, 6857
6575, 6819, 6820, 6859, 6858
6576, 6820, 6821, 6860, 6859
6577, 6821, 6822, 6861, 6860
6578, 6822, 6823, 6862, 6861
6579, 6823, 6824, 6863, 6862
6580, 6824, 6825, 6864, 6863
6581, 6825, 6826, 6865, 6864
6582, 6826, 6827, 6866, 6865
6583, 6827, 6828, 6867, 6866
6584, 6828, 6829, 6868, 6867
6585, 6829, 6830, 6869, 6868
6586, 6830, 6831, 6870, 6869
6587, 6831, 6832, 6871, 6870
6588, 6832, 6833, 6872, 6871
6589, 6833, 6834, 6873, 6872
6590, 6834, 6835, 6874, 6873
6591, 6835, 6836, 6875, 6874
6592, 6836, 6837, 6876, 6875
6593, 6837, 6838, 6877, 6876
6594, 6838, 6839, 6878, 6877
6595, 6839, 6840, 6879, 6878
6596, 6840, 6841, 6880, 6879
6597, 6841, 6842, 6881, 6880
6598, 6842, 6843, 6882, 6881
6599, 6843, 6844, 6883, 6882
6600, 6844,  437,  438, 6883
6601,  514, 6845, 6884,  513
6602, 6845, 6846, 6885, 6884
6603, 6846, 6847, 6886, 6885
6604, 6847, 6848, 6887, 6886
6605, 6848, 6849, 6888, 6887
6606, 6849, 6850, 6889, 6888
6607, 6850, 6851, 6890, 6889
6608, 6851, 6852, 6891, 6890
6609, 6852, 6853, 6892, 6891
6610, 6853, 6854, 6893, 6892
6611, 6854, 6855, 6894, 6893
6612, 6855, 6856, 6895, 6894
6613, 6856, 6857, 6896, 6895
6614, 6857, 6858, 6897, 6896
6615, 6858, 6859, 6898, 6897
6616, 6859, 6860, 6899, 6898
6617, 6860, 6861, 6900, 6899
6618, 6861, 6862, 6901, 6900
6619, 6862, 6863, 6902, 6901
6620, 6863, 6864, 6903, 6902
6621, 6864, 6865, 6904, 6903
6622, 6865, 6866, 6905, 6904
6623, 6866, 6867, 6906, 6905
6624, 6867, 6868, 6907, 6906
6625, 6868, 6869, 6908, 6907
6626, 6869, 6870, 6909, 6908
6627, 6870, 6871, 6910, 6909
6628, 6871, 6872, 6911, 6910
6629, 6872, 6873, 6912, 6911
6630, 6873, 6874, 6913, 6912
6631, 6874, 6875, 6914, 6913
6632, 6875, 6876, 6915, 6914
6633, 6876, 6877, 6916, 6915
6634, 6877, 6878, 6917, 6916
6635, 6878, 6879, 6918, 6917
6636, 6879, 6880, 6919, 6918
6637, 6880, 6881, 6920, 6919
6638, 6881, 6882, 6921, 6920
6639, 6882, 6883, 6922, 6921
6640, 6883,  438,  439, 6922
6641,  513, 6884, 6923,  512
6642, 6884, 6885, 6924, 6923
6643, 6885, 6886, 6925, 6924
6644, 6886, 6887, 6926, 6925
6645, 6887, 6888, 6927, 6926
6646, 6888, 6889, 6928, 6927
6647, 6889, 6890, 6929, 6928
6648, 6890, 6891, 6930, 6929
6649, 6891, 6892, 6931, 6930
6650, 6892, 6893, 6932, 6931
6651, 6893, 6894, 6933, 6932
6652, 6894, 6895, 6934, 6933
6653, 6895, 6896, 6935, 6934
6654, 6896, 6897, 6936, 6935
6655, 6897, 6898, 6937, 6936
6656, 6898, 6899, 6938, 6937
6657, 6899, 6900, 6939, 6938
6658, 6900, 6901, 6940, 6939
6659, 6901, 6902, 6941, 6940
6660, 6902, 6903, 6942, 6941
6661, 6903, 6904, 6943, 6942
6662, 6904, 6905, 6944, 6943
6663, 6905, 6906, 6945, 6944
6664, 6906, 6907, 6946, 6945
6665, 6907, 6908, 6947, 6946
6666, 6908, 6909, 6948, 6947
6667, 6909, 6910, 6949, 6948
6668, 6910, 6911, 6950, 6949
6669, 6911, 6912, 6951, 6950
6670, 6912, 6913, 6952, 6951
6671, 6913, 6914, 6953, 6952
6672, 6914, 6915, 6954, 6953
6673, 6915, 6916, 6955, 6954
6674, 6916, 6917, 6956, 6955
6675, 6917, 6918, 6957, 6956
6676, 6918, 6919, 6958, 6957
6677, 6919, 6920, 6959, 6958
6678, 6920, 6921, 6960, 6959
6679, 6921, 6922, 6961, 6960
6680, 6922,  439,  440, 6961
6681,  512, 6923, 6962,  511
6682, 6923, 6924, 6963, 6962
6683, 6924, 6925, 6964, 6963
6684, 6925, 6926, 6965, 6964
6685, 6926, 6927, 6966, 6965
6686, 6927, 6928, 6967, 6966
6687, 6928, 6929, 6968, 6967
6688, 6929, 6930, 6969, 6968
6689, 6930, 6931, 6970, 6969
6690, 6931, 6932, 6971, 6970
6691, 6932, 6933, 6972, 6971
6692, 6933, 6934, 6973, 6972
6693, 6934, 6935, 6974, 6973
6694, 6935, 6936, 6975, 6974
6695, 6936, 6937, 6976, 6975
6696, 6937, 6938, 6977, 6976
6697, 6938, 6939, 6978, 6977
6698, 6939, 6940, 6979, 6978
6699, 6940, 6941, 6980, 6979
6700, 6941, 6942, 6981, 6980
6701, 6942, 6943, 6982, 6981
6702, 6943, 6944, 6983, 6982
6703, 6944, 6945, 6984, 6983
6704, 6945, 6946, 6985, 6984
6705, 6946, 6947, 6986, 6985
6706, 6947, 6948, 6987, 6986
6707, 6948, 6949, 6988, 6987
6708, 6949, 6950, 6989, 6988
6709, 6950, 6951, 6990, 6989
6710, 6951, 6952, 6991, 6990
6711, 6952, 6953, 6992, 6991
6712, 6953, 6954, 6993, 6992
6713, 6954, 6955, 6994, 6993
6714, 6955, 6956, 6995, 6994
6715, 6956, 6957, 6996, 6995
6716, 6957, 6958, 6997, 6996
6717, 6958, 6959, 6998, 6997
6718, 6959, 6960, 6999, 6998
6719, 6960, 6961, 7000, 6999
6720, 6961,  440,  441, 7000
6721,  511, 6962, 7001,  510
6722, 6962, 6963, 7002, 7001
6723, 6963, 6964, 7003, 7002
6724, 6964, 6965, 7004, 7003
6725, 6965, 6966, 7005, 7004
6726, 6966, 6967, 7006, 7005
6727, 6967, 6968, 7007, 7006
6728, 6968, 6969, 7008, 7007
6729, 6969, 6970, 7009, 7008
6730, 6970, 6971, 7010, 7009
6731, 6971, 6972, 7011, 7010
6732, 6972, 6973, 7012, 7011
6733, 6973, 6974, 7013, 7012
6734, 6974, 6975, 7014, 7013
6735, 6975, 6976, 7015, 7014
6736, 6976, 6977, 7016, 7015
6737, 6977, 6978, 7017, 7016
6738, 6978, 6979, 7018, 7017
6739, 6979, 6980, 7019, 7018
6740, 6980, 6981, 7020, 7019
6741, 6981, 6982, 7021, 7020
6742, 6982, 6983, 7022, 7021
6743, 6983, 6984, 7023, 7022
6744, 6984, 6985, 7024, 7023
6745, 6985, 6986, 7025, 7024
6746, 6986, 6987, 7026, 7025
6747, 6987, 6988, 7027, 7026
6748, 6988, 6989, 7028, 7027
6749, 6989, 6990, 7029, 7028
6750, 6990, 6991, 7030, 7029
6751, 6991, 6992, 7031, 7030
6752, 6992, 6993, 7032, 7031
6753, 6993, 6994, 7033, 7032
6754, 6994, 6995, 7034, 7033
6755, 6995, 6996, 7035, 7034
6756, 6996, 6997, 7036, 7035
6757, 6997, 6998, 7037, 7036
6758, 6998, 6999, 7038, 7037
6759, 6999, 7000, 7039, 7038
6760, 7000,  441,  442, 7039
6761,  510, 7001, 7040,  509
6762, 7001, 7002, 7041, 7040
6763, 7002, 7003, 7042, 7041
6764, 7003, 7004, 7043, 7042
6765, 7004, 7005, 7044, 7043
6766, 7005, 7006, 7045, 7044
6767, 7006, 7007, 7046, 7045
6768, 7007, 7008, 7047, 7046
6769, 7008, 7009, 7048, 7047
6770, 7009, 7010, 7049, 7048
6771, 7010, 7011, 7050, 7049
6772, 7011, 7012, 7051, 7050
6773, 7012, 7013, 7052, 7051
6774, 7013, 7014, 7053, 7052
6775, 7014, 7015, 7054, 7053
6776, 7015, 7016, 7055, 7054
6777, 7016, 7017, 7056, 7055
6778, 7017, 7018, 7057, 7056
6779, 7018, 7019, 7058, 7057
6780, 7019, 7020, 7059, 7058
6781, 7020, 7021, 7060, 7059
6782, 7021, 7022, 7061, 7060
6783, 7022, 7023, 7062, 7061
6784, 7023, 7024, 7063, 7062
6785, 7024, 7025, 7064, 7063
6786, 7025, 7026, 7065, 7064
6787, 7026, 7027, 7066, 7065
6788, 7027, 7028, 7067, 7066
6789, 7028, 7029, 7068, 7067
6790, 7029, 7030, 7069, 7068
6791, 7030, 7031, 7070, 7069
6792, 7031, 7032, 7071, 7070
6793, 7032, 7033, 7072, 7071
6794, 7033, 7034, 7073, 7072
6795, 7034, 7035, 7074, 7073
6796, 7035, 7036, 7075, 7074
6797, 7036, 7037, 7076, 7075
6798, 7037, 7038, 7077, 7076
6799, 7038, 7039, 7078, 7077
6800, 7039,  442,  443, 7078
6801,  509, 7040, 7079,  508
6802, 7040, 7041, 7080, 7079
6803, 7041, 7042, 7081, 7080
6804, 7042, 7043, 7082, 7081
6805, 7043, 7044, 7083, 7082
6806, 7044, 7045, 7084, 7083
6807, 7045, 7046, 7085, 7084
6808, 7046, 7047, 7086, 7085
6809, 7047, 7048, 7087, 7086
6810, 7048, 7049, 7088, 7087
6811, 7049, 7050, 7089, 7088
6812, 7050, 7051, 7090, 7089
6813, 7051, 7052, 7091, 7090
6814, 7052, 7053, 7092, 7091
6815, 7053, 7054, 7093, 7092
6816, 7054, 7055, 7094, 7093
6817, 7055, 7056, 7095, 7094
6818, 7056, 7057, 7096, 7095
6819, 7057, 7058, 7097, 7096
6820, 7058, 7059, 7098, 7097
6821, 7059, 7060, 7099, 7098
6822, 7060, 7061, 7100, 7099
6823, 7061, 7062, 7101, 7100
6824, 7062, 7063, 7102, 7101
6825, 7063, 7064, 7103, 7102
6826, 7064, 7065, 7104, 7103
6827, 7065, 7066, 7105, 7104
6828, 7066, 7067, 7106, 7105
6829, 7067, 7068, 7107, 7106
6830, 7068, 7069, 7108, 7107
6831, 7069, 7070, 7109, 7108
6832, 7070, 7071, 7110, 7109
6833, 7071, 7072, 7111, 7110
6834, 7072, 7073, 7112, 7111
6835, 7073, 7074, 7113, 7112
6836, 7074, 7075, 7114, 7113
6837, 7075, 7076, 7115, 7114
6838, 7076, 7077, 7116, 7115
6839, 7077, 7078, 7117, 7116
6840, 7078,  443,  444, 7117
6841,  508, 7079, 7118,  507
6842, 7079, 7080, 7119, 7118
6843, 7080, 7081, 7120, 7119
6844, 7081, 7082, 7121, 7120
6845, 7082, 7083, 7122, 7121
6846, 7083, 7084, 7123, 7122
6847, 7084, 7085, 7124, 7123
6848, 7085, 7086, 7125, 7124
6849, 7086, 7087, 7126, 7125
6850, 7087, 7088, 7127, 7126
6851, 7088, 7089, 7128, 7127
6852, 7089, 7090, 7129, 7128
6853, 7090, 7091, 7130, 7129
6854, 7091, 7092, 7131, 7130
6855, 7092, 7093, 7132, 7131
6856, 7093, 7094, 7133, 7132
6857, 7094, 7095, 7134, 7133
6858, 7095, 7096, 7135, 7134
6859, 7096, 7097, 7136, 7135
6860, 7097, 7098, 7137, 7136
6861, 7098, 7099, 7138, 7137
6862, 7099, 7100, 7139, 7138
6863, 7100, 7101, 7140, 7139
6864, 7101, 7102, 7141, 7140
6865, 7102, 7103, 7142, 7141
6866, 7103, 7104, 7143, 7142
6867, 7104, 7105, 7144, 7143
6868, 7105, 7106, 7145, 7144
6869, 7106, 7107, 7146, 7145
6870, 7107, 7108, 7147, 7146
6871, 7108, 7109, 7148, 7147
6872, 7109, 7110, 7149, 7148
6873, 7110, 7111, 7150, 7149
6874, 7111, 7112, 7151, 7150
6875, 7112, 7113, 7152, 7151
6876, 7113, 7114, 7153, 7152
6877, 7114, 7115, 7154, 7153
6878, 7115, 7116, 7155, 7154
6879, 7116, 7117, 7156, 7155
6880, 7117,  444,  445, 7156
6881,  507, 7118, 7157,  506
6882, 7118, 7119, 7158, 7157
6883, 7119, 7120, 7159, 7158
6884, 7120, 7121, 7160, 7159
6885, 7121, 7122, 7161, 7160
6886, 7122, 7123, 7162, 7161
6887, 7123, 7124, 7163, 7162
6888, 7124, 7125, 7164, 7163
6889, 7125, 7126, 7165, 7164
6890, 7126, 7127, 7166, 7165
6891, 7127, 7128, 7167, 7166
6892, 7128, 7129, 7168, 7167
6893, 7129, 7130, 7169, 7168
6894, 7130, 7131, 7170, 7169
6895, 7131, 7132, 7171, 7170
6896, 7132, 7133, 7172, 7171
6897, 7133, 7134, 7173, 7172
6898, 7134, 7135, 7174, 7173
6899, 7135, 7136, 7175, 7174
6900, 7136, 7137, 7176, 7175
6901, 7137, 7138, 7177, 7176
6902, 7138, 7139, 7178, 7177
6903, 7139, 7140, 7179, 7178
6904, 7140, 7141, 7180, 7179
6905, 7141, 7142, 7181, 7180
6906, 7142, 7143, 7182, 7181
6907, 7143, 7144, 7183, 7182
6908, 7144, 7145, 7184, 7183
6909, 7145, 7146, 7185, 7184
6910, 7146, 7147, 7186, 7185
6911, 7147, 7148, 7187, 7186
6912, 7148, 7149, 7188, 7187
6913, 7149, 7150, 7189, 7188
6914, 7150, 7151, 7190, 7189
6915, 7151, 7152, 7191, 7190
6916, 7152, 7153, 7192, 7191
6917, 7153, 7154, 7193, 7192
6918, 7154, 7155, 7194, 7193
6919, 7155, 7156, 7195, 7194
6920, 7156,  445,  446, 7195
6921,  506, 7157, 7196,  505
6922, 7157, 7158, 7197, 7196
6923, 7158, 7159, 7198, 7197
6924, 7159, 7160, 7199, 7198
6925, 7160, 7161, 7200, 7199
6926, 7161, 7162, 7201, 7200
6927, 7162, 7163, 7202, 7201
6928, 7163, 7164, 7203, 7202
6929, 7164, 7165, 7204, 7203
6930, 7165, 7166, 7205, 7204
6931, 7166, 7167, 7206, 7205
6932, 7167, 7168, 7207, 7206
6933, 7168, 7169, 7208, 7207
6934, 7169, 7170, 7209, 7208
6935, 7170, 7171, 7210, 7209
6936, 7171, 7172, 7211, 7210
6937, 7172, 7173, 7212, 7211
6938, 7173, 7174, 7213, 7212
6939, 7174, 7175, 7214, 7213
6940, 7175, 7176, 7215, 7214
6941, 7176, 7177, 7216, 7215
6942, 7177, 7178, 7217, 7216
6943, 7178, 7179, 7218, 7217
6944, 7179, 7180, 7219, 7218
6945, 7180, 7181, 7220, 7219
6946, 7181, 7182, 7221, 7220
6947, 7182, 7183, 7222, 7221
6948, 7183, 7184, 7223, 7222
6949, 7184, 7185, 7224, 7223
6950, 7185, 7186, 7225, 7224
6951, 7186, 7187, 7226, 7225
6952, 7187, 7188, 7227, 7226
6953, 7188, 7189, 7228, 7227
6954, 7189, 7190, 7229, 7228
6955, 7190, 7191, 7230, 7229
6956, 7191, 7192, 7231, 7230
6957, 7192, 7193, 7232, 7231
6958, 7193, 7194, 7233, 7232
6959, 7194, 7195, 7234, 7233
6960, 7195,  446,  447, 7234
6961,  505, 7196, 7235,  504
6962, 7196, 7197, 7236, 7235
6963, 7197, 7198, 7237, 7236
6964, 7198, 7199, 7238, 7237
6965, 7199, 7200, 7239, 7238
6966, 7200, 7201, 7240, 7239
6967, 7201, 7202, 7241, 7240
6968, 7202, 7203, 7242, 7241
6969, 7203, 7204, 7243, 7242
6970, 7204, 7205, 7244, 7243
6971, 7205, 7206, 7245, 7244
6972, 7206, 7207, 7246, 7245
6973, 7207, 7208, 7247, 7246
6974, 7208, 7209, 7248, 7247
6975, 7209, 7210, 7249, 7248
6976, 7210, 7211, 7250, 7249
6977, 7211, 7212, 7251, 7250
6978, 7212, 7213, 7252, 7251
6979, 7213, 7214, 7253, 7252
6980, 7214, 7215, 7254, 7253
6981, 7215, 7216, 7255, 7254
6982, 7216, 7217, 7256, 7255
6983, 7217, 7218, 7257, 7256
6984, 7218, 7219, 7258, 7257
6985, 7219, 7220, 7259, 7258
6986, 7220, 7221, 7260, 7259
6987, 7221, 7222, 7261, 7260
6988, 7222, 7223, 7262, 7261
6989, 7223, 7224, 7263, 7262
6990, 7224, 7225, 7264, 7263
6991, 7225, 7226, 7265, 7264
6992, 7226, 7227, 7266, 7265
6993, 7227, 7228, 7267, 7266
6994, 7228, 7229, 7268, 7267
6995, 7229, 7230, 7269, 7268
6996, 7230, 7231, 7270, 7269
6997, 7231, 7232, 7271, 7270
6998, 7232, 7233, 7272, 7271
6999, 7233, 7234, 7273, 7272
7000, 7234,  447,  448, 7273
7001,  504, 7235, 7274,  503
7002, 7235, 7236, 7275, 7274
7003, 7236, 7237, 7276, 7275
7004, 7237, 7238, 7277, 7276
7005, 7238, 7239, 7278, 7277
7006, 7239, 7240, 7279, 7278
7007, 7240, 7241, 7280, 7279
7008, 7241, 7242, 7281, 7280
7009, 7242, 7243, 7282, 7281
7010, 7243, 7244, 7283, 7282
7011, 7244, 7245, 7284, 7283
7012, 7245, 7246, 7285, 7284
7013, 7246, 7247, 7286, 7285
7014, 7247, 7248, 7287, 7286
7015, 7248, 7249, 7288, 7287
7016, 7249, 7250, 7289, 7288
7017, 7250, 7251, 7290, 7289
7018, 7251, 7252, 7291, 7290
7019, 7252, 7253, 7292, 7291
7020, 7253, 7254, 7293, 7292
7021, 7254, 7255, 7294, 7293
7022, 7255, 7256, 7295, 7294
7023, 7256, 7257, 7296, 7295
7024, 7257, 7258, 7297, 7296
7025, 7258, 7259, 7298, 7297
7026, 7259, 7260, 7299, 7298
7027, 7260, 7261, 7300, 7299
7028, 7261, 7262, 7301, 7300
7029, 7262, 7263, 7302, 7301
7030, 7263, 7264, 7303, 7302
7031, 7264, 7265, 7304, 7303
7032, 7265, 7266, 7305, 7304
7033, 7266, 7267, 7306, 7305
7034, 7267, 7268, 7307, 7306
7035, 7268, 7269, 7308, 7307
7036, 7269, 7270, 7309, 7308
7037, 7270, 7271, 7310, 7309
7038, 7271, 7272, 7311, 7310
7039, 7272, 7273, 7312, 7311
7040, 7273,  448,  449, 7312
7041,  503, 7274, 7313,  502
7042, 7274, 7275, 7314, 7313
7043, 7275, 7276, 7315, 7314
7044, 7276, 7277, 7316, 7315
7045, 7277, 7278, 7317, 7316
7046, 7278, 7279, 7318, 7317
7047, 7279, 7280, 7319, 7318
7048, 7280, 7281, 7320, 7319
7049, 7281, 7282, 7321, 7320
7050, 7282, 7283, 7322, 7321
7051, 7283, 7284, 7323, 7322
7052, 7284, 7285, 7324, 7323
7053, 7285, 7286, 7325, 7324
7054, 7286, 7287, 7326, 7325
7055, 7287, 7288, 7327, 7326
7056, 7288, 7289, 7328, 7327
7057, 7289, 7290, 7329, 7328
7058, 7290, 7291, 7330, 7329
7059, 7291, 7292, 7331, 7330
7060, 7292, 7293, 7332, 7331
7061, 7293, 7294, 7333, 7332
7062, 7294, 7295, 7334, 7333
7063, 7295, 7296, 7335, 7334
7064, 7296, 7297, 7336, 7335
7065, 7297, 7298, 7337, 7336
7066, 7298, 7299, 7338, 7337
7067, 7299, 7300, 7339, 7338
7068, 7300, 7301, 7340, 7339
7069, 7301, 7302, 7341, 7340
7070, 7302, 7303, 7342, 7341
7071, 7303, 7304, 7343, 7342
7072, 7304, 7305, 7344, 7343
7073, 7305, 7306, 7345, 7344
7074, 7306, 7307, 7346, 7345
7075, 7307, 7308, 7347, 7346
7076, 7308, 7309, 7348, 7347
7077, 7309, 7310, 7349, 7348
7078, 7310, 7311, 7350, 7349
7079, 7311, 7312, 7351, 7350
7080, 7312,  449,  450, 7351
7081,  502, 7313, 7352,  501
7082, 7313, 7314, 7353, 7352
7083, 7314, 7315, 7354, 7353
7084, 7315, 7316, 7355, 7354
7085, 7316, 7317, 7356, 7355
7086, 7317, 7318, 7357, 7356
7087, 7318, 7319, 7358, 7357
7088, 7319, 7320, 7359, 7358
7089, 7320, 7321, 7360, 7359
7090, 7321, 7322, 7361, 7360
7091, 7322, 7323, 7362, 7361
7092, 7323, 7324, 7363, 7362
7093, 7324, 7325, 7364, 7363
7094, 7325, 7326, 7365, 7364
7095, 7326, 7327, 7366, 7365
7096, 7327, 7328, 7367, 7366
7097, 7328, 7329, 7368, 7367
7098, 7329, 7330, 7369, 7368
7099, 7330, 7331, 7370, 7369
7100, 7331, 7332, 7371, 7370
7101, 7332, 7333, 7372, 7371
7102, 7333, 7334, 7373, 7372
7103, 7334, 7335, 7374, 7373
7104, 7335, 7336, 7375, 7374
7105, 7336, 7337, 7376, 7375
7106, 7337, 7338, 7377, 7376
7107, 7338, 7339, 7378, 7377
7108, 7339, 7340, 7379, 7378
7109, 7340, 7341, 7380, 7379
7110, 7341, 7342, 7381, 7380
7111, 7342, 7343, 7382, 7381
7112, 7343, 7344, 7383, 7382
7113, 7344, 7345, 7384, 7383
7114, 7345, 7346, 7385, 7384
7115, 7346, 7347, 7386, 7385
7116, 7347, 7348, 7387, 7386
7117, 7348, 7349, 7388, 7387
7118, 7349, 7350, 7389, 7388
7119, 7350, 7351, 7390, 7389
7120, 7351,  450,  451, 7390
7121,  501, 7352, 7391,  500
7122, 7352, 7353, 7392, 7391
7123, 7353, 7354, 7393, 7392
7124, 7354, 7355, 7394, 7393
7125, 7355, 7356, 7395, 7394
7126, 7356, 7357, 7396, 7395
7127, 7357, 7358, 7397, 7396
7128, 7358, 7359, 7398, 7397
7129, 7359, 7360, 7399, 7398
7130, 7360, 7361, 7400, 7399
7131, 7361, 7362, 7401, 7400
7132, 7362, 7363, 7402, 7401
7133, 7363, 7364, 7403, 7402
7134, 7364, 7365, 7404, 7403
7135, 7365, 7366, 7405, 7404
7136, 7366, 7367, 7406, 7405
7137, 7367, 7368, 7407, 7406
7138, 7368, 7369, 7408, 7407
7139, 7369, 7370, 7409, 7408
7140, 7370, 7371, 7410, 7409
7141, 7371, 7372, 7411, 7410
7142, 7372, 7373, 7412, 7411
7143, 7373, 7374, 7413, 7412
7144, 7374, 7375, 7414, 7413
7145, 7375, 7376, 7415, 7414
7146, 7376, 7377, 7416, 7415
7147, 7377, 7378, 7417, 7416
7148, 7378, 7379, 7418, 7417
7149, 7379, 7380, 7419, 7418
7150, 7380, 7381, 7420, 7419
7151, 7381, 7382, 7421, 7420
7152, 7382, 7383, 7422, 7421
7153, 7383, 7384, 7423, 7422
7154, 7384, 7385, 7424, 7423
7155, 7385, 7386, 7425, 7424
7156, 7386, 7387, 7426, 7425
7157, 7387, 7388, 7427, 7426
7158, 7388, 7389, 7428, 7427
7159, 7389, 7390, 7429, 7428
7160, 7390,  451,  452, 7429
7161,  500, 7391, 7430,  499
7162, 7391, 7392, 7431, 7430
7163, 7392, 7393, 7432, 7431
7164, 7393, 7394, 7433, 7432
7165, 7394, 7395, 7434, 7433
7166, 7395, 7396, 7435, 7434
7167, 7396, 7397, 7436, 7435
7168, 7397, 7398, 7437, 7436
7169, 7398, 7399, 7438, 7437
7170, 7399, 7400, 7439, 7438
7171, 7400, 7401, 7440, 7439
7172, 7401, 7402, 7441, 7440
7173, 7402, 7403, 7442, 7441
7174, 7403, 7404, 7443, 7442
7175, 7404, 7405, 7444, 7443
7176, 7405, 7406, 7445, 7444
7177, 7406, 7407, 7446, 7445
7178, 7407, 7408, 7447, 7446
7179, 7408, 7409, 7448, 7447
7180, 7409, 7410, 7449, 7448
7181, 7410, 7411, 7450, 7449
7182, 7411, 7412, 7451, 7450
7183, 7412, 7413, 7452, 7451
7184, 7413, 7414, 7453, 7452
7185, 7414, 7415, 7454, 7453
7186, 7415, 7416, 7455, 7454
7187, 7416, 7417, 7456, 7455
7188, 7417, 7418, 7457, 7456
7189, 7418, 7419, 7458, 7457
7190, 7419, 7420, 7459, 7458
7191, 7420, 7421, 7460, 7459
7192, 7421, 7422, 7461, 7460
7193, 7422, 7423, 7462, 7461
7194, 7423, 7424, 7463, 7462
7195, 7424, 7425, 7464, 7463
7196, 7425, 7426, 7465, 7464
7197, 7426, 7427, 7466, 7465
7198, 7427, 7428, 7467, 7466
7199, 7428, 7429, 7468, 7467
7200, 7429,  452,  453, 7468
7201,  499, 7430, 7469,  498
7202, 7430, 7431, 7470, 7469
7203, 7431, 7432, 7471, 7470
7204, 7432, 7433, 7472, 7471
7205, 7433, 7434, 7473, 7472
7206, 7434, 7435, 7474, 7473
7207, 7435, 7436, 7475, 7474
7208, 7436, 7437, 7476, 7475
7209, 7437, 7438, 7477, 7476
7210, 7438, 7439, 7478, 7477
7211, 7439, 7440, 7479, 7478
7212, 7440, 7441, 7480, 7479
7213, 7441, 7442, 7481, 7480
7214, 7442, 7443, 7482, 7481
7215, 7443, 7444, 7483, 7482
7216, 7444, 7445, 7484, 7483
7217, 7445, 7446, 7485, 7484
7218, 7446, 7447, 7486, 7485
7219, 7447, 7448, 7487, 7486
7220, 7448, 7449, 7488, 7487
7221, 7449, 7450, 7489, 7488
7222, 7450, 7451, 7490, 7489
7223, 7451, 7452, 7491, 7490
7224, 7452, 7453, 7492, 7491
7225, 7453, 7454, 7493, 7492
7226, 7454, 7455, 7494, 7493
7227, 7455, 7456, 7495, 7494
7228, 7456, 7457, 7496, 7495
7229, 7457, 7458, 7497, 7496
7230, 7458, 7459, 7498, 7497
7231, 7459, 7460, 7499, 7498
7232, 7460, 7461, 7500, 7499
7233, 7461, 7462, 7501, 7500
7234, 7462, 7463, 7502, 7501
7235, 7463, 7464, 7503, 7502
7236, 7464, 7465, 7504, 7503
7237, 7465, 7466, 7505, 7504
7238, 7466, 7467, 7506, 7505
7239, 7467, 7468, 7507, 7506
7240, 7468,  453,  454, 7507
7241,  498, 7469, 7508,  497
7242, 7469, 7470, 7509, 7508
7243, 7470, 7471, 7510, 7509
7244, 7471, 7472, 7511, 7510
7245, 7472, 7473, 7512, 7511
7246, 7473, 7474, 7513, 7512
7247, 7474, 7475, 7514, 7513
7248, 7475, 7476, 7515, 7514
7249, 7476, 7477, 7516, 7515
7250, 7477, 7478, 7517, 7516
7251, 7478, 7479, 7518, 7517
7252, 7479, 7480, 7519, 7518
7253, 7480, 7481, 7520, 7519
7254, 7481, 7482, 7521, 7520
7255, 7482, 7483, 7522, 7521
7256, 7483, 7484, 7523, 7522
7257, 7484, 7485, 7524, 7523
7258, 7485, 7486, 7525, 7524
7259, 7486, 7487, 7526, 7525
7260, 7487, 7488, 7527, 7526
7261, 7488, 7489, 7528, 7527
7262, 7489, 7490, 7529, 7528
7263, 7490, 7491, 7530, 7529
7264, 7491, 7492, 7531, 7530
7265, 7492, 7493, 7532, 7531
7266, 7493, 7494, 7533, 7532
7267, 7494, 7495, 7534, 7533
7268, 7495, 7496, 7535, 7534
7269, 7496, 7497, 7536, 7535
7270, 7497, 7498, 7537, 7536
7271, 7498, 7499, 7538, 7537
7272, 7499, 7500, 7539, 7538
7273, 7500, 7501, 7540, 7539
7274, 7501, 7502, 7541, 7540
7275, 7502, 7503, 7542, 7541
7276, 7503, 7504, 7543, 7542
7277, 7504, 7505, 7544, 7543
7278, 7505, 7506, 7545, 7544
7279, 7506, 7507, 7546, 7545
7280, 7507,  454,  455, 7546
7281,  497, 7508, 7547,  496
7282, 7508, 7509, 7548, 7547
7283, 7509, 7510, 7549, 7548
7284, 7510, 7511, 7550, 7549
7285, 7511, 7512, 7551, 7550
7286, 7512, 7513, 7552, 7551
7287, 7513, 7514, 7553, 7552
7288, 7514, 7515, 7554, 7553
7289, 7515, 7516, 7555, 7554
7290, 7516, 7517, 7556, 7555
7291, 7517, 7518, 7557, 7556
7292, 7518, 7519, 7558, 7557
7293, 7519, 7520, 7559, 7558
7294, 7520, 7521, 7560, 7559
7295, 7521, 7522, 7561, 7560
7296, 7522, 7523, 7562, 7561
7297, 7523, 7524, 7563, 7562
7298, 7524, 7525, 7564, 7563
7299, 7525, 7526, 7565, 7564
7300, 7526, 7527, 7566, 7565
7301, 7527, 7528, 7567, 7566
7302, 7528, 7529, 7568, 7567
7303, 7529, 7530, 7569, 7568
7304, 7530, 7531, 7570, 7569
7305, 7531, 7532, 7571, 7570
7306, 7532, 7533, 7572, 7571
7307, 7533, 7534, 7573, 7572
7308, 7534, 7535, 7574, 7573
7309, 7535, 7536, 7575, 7574
7310, 7536, 7537, 7576, 7575
7311, 7537, 7538, 7577, 7576
7312, 7538, 7539, 7578, 7577
7313, 7539, 7540, 7579, 7578
7314, 7540, 7541, 7580, 7579
7315, 7541, 7542, 7581, 7580
7316, 7542, 7543, 7582, 7581
7317, 7543, 7544, 7583, 7582
7318, 7544, 7545, 7584, 7583
7319, 7545, 7546, 7585, 7584
7320, 7546,  455,  456, 7585
7321,  496, 7547,  495,    8
7322, 7547, 7548,  494,  495
7323, 7548, 7549,  493,  494
7324, 7549, 7550,  492,  493
7325, 7550, 7551,  491,  492
7326, 7551, 7552,  490,  491
7327, 7552, 7553,  489,  490
7328, 7553, 7554,  488,  489
7329, 7554, 7555,  487,  488
7330, 7555, 7556,  486,  487
7331, 7556, 7557,  485,  486
7332, 7557, 7558,  484,  485
7333, 7558, 7559,  483,  484
7334, 7559, 7560,  482,  483
7335, 7560, 7561,  481,  482
7336, 7561, 7562,  480,  481
7337, 7562, 7563,  479,  480
7338, 7563, 7564,  478,  479
7339, 7564, 7565,  477,  478
7340, 7565, 7566,  476,  477
7341, 7566, 7567,  475,  476
7342, 7567, 7568,  474,  475
7343, 7568, 7569,  473,  474
7344, 7569, 7570,  472,  473
7345, 7570, 7571,  471,  472
7346, 7571, 7572,  470,  471
7347, 7572, 7573,  469,  470
7348, 7573, 7574,  468,  469
7349, 7574, 7575,  467,  468
7350, 7575, 7576,  466,  467
7351, 7576, 7577,  465,  466
7352, 7577, 7578,  464,  465
7353, 7578, 7579,  463,  464
7354, 7579, 7580,  462,  463
7355, 7580, 7581,  461,  462
7356, 7581, 7582,  460,  461
7357, 7582, 7583,  459,  460
7358, 7583, 7584,  458,  459
7359, 7584, 7585,  457,  458
7360, 7585,  456,    7,  457
*Nset, nset=WaferAll, generate
    1,  7585,     1
*Elset, elset=WaferAll, generate
    1,  7360,     1
** Section: WaferSec
*Solid Section, elset=WaferAll, controls=EC-1, material=M_4H_SiC
1.,
*End Part
**  
**
** ASSEMBLY
**
*Assembly, name=Assembly
**  
*Instance, name=Wafer-1, part=Wafer
*End Instance
**  
*Instance, name=Blade-1, part=Blade
       3e-05,    0.0002045,           0.
*End Instance
**  
*Nset, nset=_PickedSet6, internal, instance=Wafer-1
   1,   4, 206, 207, 208, 209, 210, 211, 212, 213, 214, 215, 216, 217, 218, 219
 220, 221, 222, 223, 224, 225, 226, 227, 228, 229, 230, 231, 232, 233, 234, 235
 236, 237, 238, 239, 240, 241, 242, 243, 244, 245, 246, 247, 248, 249, 250, 251
 252, 253, 254, 255, 256, 257, 258, 259, 260, 261, 262, 263, 264, 265, 266, 267
 268, 269, 270, 271, 272, 273, 274, 275, 276, 277, 278, 279, 280, 281, 282, 283
 284, 285, 286, 287, 288, 289, 290, 291, 292, 293, 294, 295, 296, 297, 298, 299
 300, 301, 302, 303, 304, 305, 306, 307, 308, 309, 310, 311, 312, 313, 314, 315
 316, 317, 318, 319, 320, 321, 322, 323, 324
*Elset, elset=_PickedSet6, internal, instance=Wafer-1, generate
    1,  4761,    40
*Nset, nset=_PickedSet7, internal, instance=Wafer-1
   5,   6, 356, 357, 358, 359, 360, 361, 362, 363, 364, 365, 366, 367, 368, 369
 370, 371, 372, 373, 374, 375, 376, 377, 378, 379, 380, 381, 382, 383, 384, 385
 386, 387, 388, 389, 390, 391, 392, 393, 394
*Elset, elset=_PickedSet7, internal, instance=Wafer-1, generate
 6041,  6080,     1
*Nset, nset=_PickedSet8, internal, instance=Wafer-1
   7,   8, 457, 458, 459, 460, 461, 462, 463, 464, 465, 466, 467, 468, 469, 470
 471, 472, 473, 474, 475, 476, 477, 478, 479, 480, 481, 482, 483, 484, 485, 486
 487, 488, 489, 490, 491, 492, 493, 494, 495
*Elset, elset=_PickedSet8, internal, instance=Wafer-1, generate
 7321,  7360,     1
*Nset, nset=_PickedSet9, internal, instance=Blade-1
 24,
*Nset, nset=_PickedSet10, internal, instance=Blade-1
 24,
*Nset, nset=_PickedSet13, internal, instance=Blade-1
 24,
*Elset, elset=_BladeSurf_SPOS, internal, instance=Blade-1, generate
  1,  22,   1
*Surface, type=ELEMENT, name=BladeSurf
_BladeSurf_SPOS, SNEG
*Elset, elset=_WaferTop_S2, internal, instance=Wafer-1, generate
   40,  4800,    40
*Surface, type=ELEMENT, name=WaferTop
_WaferTop_S2, S2
*Rigid Body, ref node=Blade-1.Blade-RefPt_, elset=Blade-1.Blade
*End Assembly
** 
** ELEMENT CONTROLS
** 
*Section Controls, name=EC-1, DISTORTION CONTROL=YES, hourglass=ENHANCED
1., 1., 1.
** 
** MATERIALS
** 
*Material, name=M_4H_SiC
*Density
3210.,
*Drucker Prager
 68.8,1.,0.
*Drucker Prager Hardening, type=SHEAR
 1e+09,0.
*Elastic
 4.48e+11, 0.21
** 
** INTERACTION PROPERTIES
** 
*Surface Interaction, name=FricContact
*Friction
 0.3,
*Surface Behavior, pressure-overclosure=HARD
** 
** BOUNDARY CONDITIONS
** 
** Name: BladeRot Type: Displacement/Rotation
*Boundary
_PickedSet9, 6, 6
** Name: WaferBottom Type: Symmetry/Antisymmetry/Encastre
*Boundary
_PickedSet6, ENCASTRE
** Name: WaferLeft Type: Displacement/Rotation
*Boundary
_PickedSet7, 1, 1
** Name: WaferRight Type: Displacement/Rotation
*Boundary
_PickedSet8, 1, 1
** ----------------------------------------------------------------
** 
** STEP: Plunge
** 
*Step, name=Plunge, nlgeom=YES
*Dynamic, Explicit
, 4e-05
*Bulk Viscosity
0.06, 1.2
** Mass Scaling: Semi-Automatic
**               Whole Model
*Fixed Mass Scaling, dt=1.00e-08, type=BELOW MIN
** 
** BOUNDARY CONDITIONS
** 
** Name: BladeMotion Type: Velocity/Angular velocity
*Boundary, type=VELOCITY
_PickedSet10, 1, 1
_PickedSet10, 2, 2, -0.5
** 
** INTERACTIONS
** 
** Interaction: BladeCut
*Contact Pair, interaction=FricContact, mechanical constraint=PENALTY, cpset=BladeCut
BladeSurf, WaferTop
** 
** OUTPUT REQUESTS
** 
*Restart, write, number interval=1, time marks=NO
** 
** FIELD OUTPUT: F-Output-1
** 
*Output, field, time interval=1.68e-05
*Node Output
U, 
*Element Output, directions=YES
ENER, PEEQ, S, SDV, STATUS
** 
** HISTORY OUTPUT: H-Output-1
** 
*Output, history, variable=PRESELECT
** 
** HISTORY OUTPUT: BladeForce
** 
*Output, history, time interval=1.33333e-07
*Node Output, nset=_PickedSet13
RF1, RF2, U1, U2
*End Step
** ----------------------------------------------------------------
** 
** STEP: Feed
** 
*Step, name=Feed, nlgeom=YES
*Dynamic, Explicit
, 0.0008
*Bulk Viscosity
0.06, 1.2
** Mass Scaling: Semi-Automatic
**               Whole Model
*Fixed Mass Scaling, dt=1.00e-08, type=BELOW MIN
** 
** BOUNDARY CONDITIONS
** 
** Name: BladeMotion Type: Velocity/Angular velocity
*Boundary, type=VELOCITY
_PickedSet10, 1, 1, 0.5
_PickedSet10, 2, 2
** 
** OUTPUT REQUESTS
** 
*Restart, write, number interval=1, time marks=NO
** 
** FIELD OUTPUT: F-Output-1
** 
*Output, field, time interval=1.68e-05
*Node Output
U, 
*Element Output, directions=YES
ENER, PEEQ, S, SDV, STATUS
** 
** HISTORY OUTPUT: H-Output-1
** 
*Output, history, variable=PRESELECT
** 
** HISTORY OUTPUT: BladeForce
** 
*Output, history, time interval=2.66667e-06
*Node Output, nset=_PickedSet13
RF1, RF2, U1, U2
*End Step
