*Heading
** Job name: dicing_4HSiC_d030_bw20 Model name: dicing_4HSiC_d030_bw20
** Generated by: Abaqus/CAE 2024
*Preprint, echo=NO, model=NO, history=NO, contact=NO
**
** PARTS
**
*Part, name=Blade
*Node
      1, 9.99999975e-06,           0.
      2, 7.0000001e-06, -3.00000011e-06
      3, -7.0000001e-06, -3.00000011e-06
      4, -9.99999975e-06,           0.
      5, 9.00000032e-06, -9.99999997e-07
      6, 7.99999998e-06, -1.99999999e-06
      7, 5.44444447e-06, -3.00000011e-06
      8, 3.88888884e-06, -3.00000011e-06
      9, 2.33333344e-06, -3.00000011e-06
     10, 7.77777757e-07, -3.00000011e-06
     11, -7.77777757e-07, -3.00000011e-06
     12, -2.33333344e-06, -3.00000011e-06
     13, -3.88888884e-06, -3.00000011e-06
     14, -5.44444447e-06, -3.00000011e-06
     15, -7.99999998e-06, -1.99999999e-06
     16, -9.00000032e-06, -9.99999997e-07
*Element, type=R2D2
1, 1, 5
2, 5, 6
3, 6, 2
 4,  2,  7
 5,  7,  8
 6,  8,  9
 7,  9, 10
 8, 10, 11
 9, 11, 12
10, 12, 13
11, 13, 14
12, 14,  3
13,  3, 15
14, 15, 16
15, 16,  4
*Node
     17,           0.,           0.,           0.
*Nset, nset=Blade-RefPt_, internal
17, 
*Elset, elset=Blade, generate
  1,  15,   1
*End Part
**  
*Part, name=Wafer
*Node
      1, 0.000310000003,           0.
      2, 0.000310000003, 0.000199999995
      3, 0.000190000006, 0.000199999995
      4, 0.000190000006,           0.
      5,           0., 0.000199999995
      6,           0.,           0.
      7, 0.000500000024,           0.
      8, 0.000500000024, 0.000199999995
      9, 0.000310000003, 4.99999987e-06
     10, 0.000310000003, 9.99999975e-06
     11, 0.000310000003, 1.49999996e-05
     12, 0.000310000003, 1.99999995e-05
     13, 0.000310000003, 2.49999994e-05
     14, 0.000310000003, 2.99999992e-05
     15, 0.000310000003, 3.50000009e-05
     16, 0.000310000003, 3.9999999e-05
     17, 0.000310000003, 4.50000007e-05
     18, 0.000310000003, 4.99999987e-05
     19, 0.000310000003, 5.50000004e-05
     20, 0.000310000003, 5.99999985e-05
     21, 0.000310000003, 6.50000002e-05
     22, 0.000310000003, 7.00000019e-05
     23, 0.000310000003, 7.50000036e-05
     24, 0.000310000003, 7.9999998e-05
     25, 0.000310000003, 8.49999997e-05
     26, 0.000310000003, 9.00000014e-05
     27, 0.000310000003, 9.50000031e-05
     28, 0.000310000003, 9.99999975e-05
     29, 0.000310000003, 0.000104999999
     30, 0.000310000003, 0.000110000001
     31, 0.000310000003, 0.000115000003
     32, 0.000310000003, 0.000119999997
     33, 0.000310000003, 0.000125000006
     34, 0.000310000003,      0.00013
     35, 0.000310000003, 0.000134999995
     36, 0.000310000003, 0.000140000004
     37, 0.000310000003, 0.000144999998
     38, 0.000310000003, 0.000150000007
     39, 0.000310000003, 0.000155000002
     40, 0.000310000003, 0.000159999996
     41, 0.000310000003, 0.000165000005
     42, 0.000310000003, 0.000169999999
     43, 0.000310000003, 0.000174999994
     44, 0.000310000003, 0.000180000003
     45, 0.000310000003, 0.000184999997
     46, 0.000310000003, 0.000190000006
     47, 0.000310000003, 0.000195000001
     48, 0.000308499992, 0.000199999995
     49, 0.000307000009, 0.000199999995
     50, 0.000305499998, 0.000199999995
     51, 0.000303999986, 0.000199999995
     52, 0.000302500004, 0.000199999995
     53, 0.000300999993, 0.000199999995
     54, 0.00029950001, 0.000199999995
     55, 0.000297999999, 0.000199999995
     56, 0.000296499988, 0.000199999995
     57, 0.000295000005, 0.000199999995
     58, 0.000293499994, 0.000199999995
     59, 0.000292000012, 0.000199999995
     60,    0.0002905, 0.000199999995
     61, 0.000288999989, 0.000199999995
     62, 0.000287500006, 0.000199999995
     63, 0.000285999995, 0.000199999995
     64, 0.000284500013, 0.000199999995
     65, 0.000283000001, 0.000199999995
     66, 0.00028149999, 0.000199999995
     67, 0.000280000007, 0.000199999995
     68, 0.000278499996, 0.000199999995
     69, 0.000277000014, 0.000199999995
     70, 0.000275500002, 0.000199999995
     71, 0.000273999991, 0.000199999995
     72, 0.000272500009, 0.000199999995
     73, 0.000270999997, 0.000199999995
     74, 0.000269499986, 0.000199999995
     75, 0.000268000003, 0.000199999995
     76, 0.000266499992, 0.000199999995
     77, 0.00026500001, 0.000199999995
     78, 0.000263499998, 0.000199999995
     79, 0.000261999987, 0.000199999995
     80, 0.000260500005, 0.000199999995
     81, 0.000258999993, 0.000199999995
     82, 0.000257500011, 0.000199999995
     83, 0.000255999999, 0.000199999995
     84, 0.000254499988, 0.000199999995
     85, 0.000253000006, 0.000199999995
     86, 0.000251499994, 0.000199999995
     87, 0.000250000012, 0.000199999995
     88,    0.0002485, 0.000199999995
     89, 0.000246999989, 0.000199999995
     90, 0.000245500007, 0.000199999995
     91, 0.000243999995, 0.000199999995
     92, 0.000242499998, 0.000199999995
     93, 0.000241000002, 0.000199999995
     94, 0.000239500005, 0.000199999995
     95, 0.000237999993, 0.000199999995
     96, 0.000236499996, 0.000199999995
     97,     0.000235, 0.000199999995
     98, 0.000233500003, 0.000199999995
     99, 0.000232000006, 0.000199999995
    100, 0.000230499994, 0.000199999995
    101, 0.000228999997, 0.000199999995
    102, 0.000227500001, 0.000199999995
    103, 0.000226000004, 0.000199999995
    104, 0.000224500007, 0.000199999995
    105, 0.000222999995, 0.000199999995
    106, 0.000221499999, 0.000199999995
    107, 0.000220000002, 0.000199999995
    108, 0.000218500005, 0.000199999995
    109, 0.000216999993, 0.000199999995
    110, 0.000215499997, 0.000199999995
    111,     0.000214, 0.000199999995
    112, 0.000212500003, 0.000199999995
    113, 0.000211000006, 0.000199999995
    114, 0.000209499995, 0.000199999995
    115, 0.000207999998, 0.000199999995
    116, 0.000206500001, 0.000199999995
    117, 0.000205000004, 0.000199999995
    118, 0.000203500007, 0.000199999995
    119, 0.000201999996, 0.000199999995
    120, 0.000200499999, 0.000199999995
    121, 0.000199000002, 0.000199999995
    122, 0.000197500005, 0.000199999995
    123, 0.000195999994, 0.000199999995
    124, 0.000194499997, 0.000199999995
    125,     0.000193, 0.000199999995
    126, 0.000191500003, 0.000199999995
    127, 0.000190000006, 0.000195000001
    128, 0.000190000006, 0.000190000006
    129, 0.000190000006, 0.000184999997
    130, 0.000190000006, 0.000180000003
    131, 0.000190000006, 0.000174999994
    132, 0.000190000006, 0.000169999999
    133, 0.000190000006, 0.000165000005
    134, 0.000190000006, 0.000159999996
    135, 0.000190000006, 0.000155000002
    136, 0.000190000006, 0.000150000007
    137, 0.000190000006, 0.000144999998
    138, 0.000190000006, 0.000140000004
    139, 0.000190000006, 0.000134999995
    140, 0.000190000006,      0.00013
    141, 0.000190000006, 0.000125000006
    142, 0.000190000006, 0.000119999997
    143, 0.000190000006, 0.000115000003
    144, 0.000190000006, 0.000110000001
    145, 0.000190000006, 0.000104999999
    146, 0.000190000006, 9.99999975e-05
    147, 0.000190000006, 9.50000031e-05
    148, 0.000190000006, 9.00000014e-05
    149, 0.000190000006, 8.49999997e-05
    150, 0.000190000006, 7.9999998e-05
    151, 0.000190000006, 7.50000036e-05
    152, 0.000190000006, 7.00000019e-05
    153, 0.000190000006, 6.50000002e-05
    154, 0.000190000006, 5.99999985e-05
    155, 0.000190000006, 5.50000004e-05
    156, 0.000190000006, 4.99999987e-05
    157, 0.000190000006, 4.50000007e-05
    158, 0.000190000006, 3.9999999e-05
    159, 0.000190000006, 3.50000009e-05
    160, 0.000190000006, 2.99999992e-05
    161, 0.000190000006, 2.49999994e-05
    162, 0.000190000006, 1.99999995e-05
    163, 0.000190000006, 1.49999996e-05
    164, 0.000190000006, 9.99999975e-06
    165, 0.000190000006, 4.99999987e-06
    166, 0.000191500003,           0.
    167,     0.000193,           0.
    168, 0.000194499997,           0.
    169, 0.000195999994,           0.
    170, 0.000197500005,           0.
    171, 0.000199000002,           0.
    172, 0.000200499999,           0.
    173, 0.000201999996,           0.
    174, 0.000203500007,           0.
    175, 0.000205000004,           0.
    176, 0.000206500001,           0.
    177, 0.000207999998,           0.
    178, 0.000209499995,           0.
    179, 0.000211000006,           0.
    180, 0.000212500003,           0.
    181,     0.000214,           0.
    182, 0.000215499997,           0.
    183, 0.000216999993,           0.
    184, 0.000218500005,           0.
    185, 0.000220000002,           0.
    186, 0.000221499999,           0.
    187, 0.000222999995,           0.
    188, 0.000224500007,           0.
    189, 0.000226000004,           0.
    190, 0.000227500001,           0.
    191, 0.000228999997,           0.
    192, 0.000230499994,           0.
    193, 0.000232000006,           0.
    194, 0.000233500003,           0.
    195,     0.000235,           0.
    196, 0.000236499996,           0.
    197, 0.000237999993,           0.
    198, 0.000239500005,           0.
    199, 0.000241000002,           0.
    200, 0.000242499998,           0.
    201, 0.000243999995,           0.
    202, 0.000245500007,           0.
    203, 0.000246999989,           0.
    204,    0.0002485,           0.
    205, 0.000250000012,           0.
    206, 0.000251499994,           0.
    207, 0.000253000006,           0.
    208, 0.000254499988,           0.
    209, 0.000255999999,           0.
    210, 0.000257500011,           0.
    211, 0.000258999993,           0.
    212, 0.000260500005,           0.
    213, 0.000261999987,           0.
    214, 0.000263499998,           0.
    215, 0.00026500001,           0.
    216, 0.000266499992,           0.
    217, 0.000268000003,           0.
    218, 0.000269499986,           0.
    219, 0.000270999997,           0.
    220, 0.000272500009,           0.
    221, 0.000273999991,           0.
    222, 0.000275500002,           0.
    223, 0.000277000014,           0.
    224, 0.000278499996,           0.
    225, 0.000280000007,           0.
    226, 0.00028149999,           0.
    227, 0.000283000001,           0.
    228, 0.000284500013,           0.
    229, 0.000285999995,           0.
    230, 0.000287500006,           0.
    231, 0.000288999989,           0.
    232,    0.0002905,           0.
    233, 0.000292000012,           0.
    234, 0.000293499994,           0.
    235, 0.000295000005,           0.
    236, 0.000296499988,           0.
    237, 0.000297999999,           0.
    238, 0.00029950001,           0.
    239, 0.000300999993,           0.
    240, 0.000302500004,           0.
    241, 0.000303999986,           0.
    242, 0.000305499998,           0.
    243, 0.000307000009,           0.
    244, 0.000308499992,           0.
    245, 0.000184999997, 0.000199999995
    246, 0.000180000003, 0.000199999995
    247, 0.000174999994, 0.000199999995
    248, 0.000169999999, 0.000199999995
    249, 0.000165000005, 0.000199999995
    250, 0.000159999996, 0.000199999995
    251, 0.000155000002, 0.000199999995
    252, 0.000150000007, 0.000199999995
    253, 0.000144999998, 0.000199999995
    254, 0.000140000004, 0.000199999995
    255, 0.000134999995, 0.000199999995
    256,      0.00013, 0.000199999995
    257, 0.000125000006, 0.000199999995
    258, 0.000119999997, 0.000199999995
    259, 0.000115000003, 0.000199999995
    260, 0.000110000001, 0.000199999995
    261, 0.000104999999, 0.000199999995
    262, 9.99999975e-05, 0.000199999995
    263, 9.50000031e-05, 0.000199999995
    264, 9.00000014e-05, 0.000199999995
    265, 8.49999997e-05, 0.000199999995
    266, 7.9999998e-05, 0.000199999995
    267, 7.50000036e-05, 0.000199999995
    268, 7.00000019e-05, 0.000199999995
    269, 6.50000002e-05, 0.000199999995
    270, 5.99999985e-05, 0.000199999995
    271, 5.50000004e-05, 0.000199999995
    272, 4.99999987e-05, 0.000199999995
    273, 4.50000007e-05, 0.000199999995
    274, 3.9999999e-05, 0.000199999995
    275, 3.50000009e-05, 0.000199999995
    276, 2.99999992e-05, 0.000199999995
    277, 2.49999994e-05, 0.000199999995
    278, 1.99999995e-05, 0.000199999995
    279, 1.49999996e-05, 0.000199999995
    280, 9.99999975e-06, 0.000199999995
    281, 4.99999987e-06, 0.000199999995
    282,           0., 0.000195000001
    283,           0., 0.000190000006
    284,           0., 0.000184999997
    285,           0., 0.000180000003
    286,           0., 0.000174999994
    287,           0., 0.000169999999
    288,           0., 0.000165000005
    289,           0., 0.000159999996
    290,           0., 0.000155000002
    291,           0., 0.000150000007
    292,           0., 0.000144999998
    293,           0., 0.000140000004
    294,           0., 0.000134999995
    295,           0.,      0.00013
    296,           0., 0.000125000006
    297,           0., 0.000119999997
    298,           0., 0.000115000003
    299,           0., 0.000110000001
    300,           0., 0.000104999999
    301,           0., 9.99999975e-05
    302,           0., 9.50000031e-05
    303,           0., 9.00000014e-05
    304,           0., 8.49999997e-05
    305,           0., 7.9999998e-05
    306,           0., 7.50000036e-05
    307,           0., 7.00000019e-05
    308,           0., 6.50000002e-05
    309,           0., 5.99999985e-05
    310,           0., 5.50000004e-05
    311,           0., 4.99999987e-05
    312,           0., 4.50000007e-05
    313,           0., 3.9999999e-05
    314,           0., 3.50000009e-05
    315,           0., 2.99999992e-05
    316,           0., 2.49999994e-05
    317,           0., 1.99999995e-05
    318,           0., 1.49999996e-05
    319,           0., 9.99999975e-06
    320,           0., 4.99999987e-06
    321, 4.99999987e-06,           0.
    322, 9.99999975e-06,           0.
    323, 1.49999996e-05,           0.
    324, 1.99999995e-05,           0.
    325, 2.49999994e-05,           0.
    326, 2.99999992e-05,           0.
    327, 3.50000009e-05,           0.
    328, 3.9999999e-05,           0.
    329, 4.50000007e-05,           0.
    330, 4.99999987e-05,           0.
    331, 5.50000004e-05,           0.
    332, 5.99999985e-05,           0.
    333, 6.50000002e-05,           0.
    334, 7.00000019e-05,           0.
    335, 7.50000036e-05,           0.
    336, 7.9999998e-05,           0.
    337, 8.49999997e-05,           0.
    338, 9.00000014e-05,           0.
    339, 9.50000031e-05,           0.
    340, 9.99999975e-05,           0.
    341, 0.000104999999,           0.
    342, 0.000110000001,           0.
    343, 0.000115000003,           0.
    344, 0.000119999997,           0.
    345, 0.000125000006,           0.
    346,      0.00013,           0.
    347, 0.000134999995,           0.
    348, 0.000140000004,           0.
    349, 0.000144999998,           0.
    350, 0.000150000007,           0.
    351, 0.000155000002,           0.
    352, 0.000159999996,           0.
    353, 0.000165000005,           0.
    354, 0.000169999999,           0.
    355, 0.000174999994,           0.
    356, 0.000180000003,           0.
    357, 0.000184999997,           0.
    358, 0.000315000012,           0.
    359, 0.000319999992,           0.
    360, 0.000325000001,           0.
    361, 0.00033000001,           0.
    362, 0.00033499999,           0.
    363, 0.000339999999,           0.
    364, 0.000345000008,           0.
    365, 0.000349999988,           0.
    366, 0.000354999996,           0.
    367, 0.000360000005,           0.
    368, 0.000365000014,           0.
    369, 0.000369999994,           0.
    370, 0.000375000003,           0.
    371, 0.000380000012,           0.
    372, 0.000384999992,           0.
    373, 0.000390000001,           0.
    374, 0.00039500001,           0.
    375, 0.00039999999,           0.
    376, 0.000404999999,           0.
    377, 0.000410000008,           0.
    378, 0.000414999988,           0.
    379, 0.000419999997,           0.
    380, 0.000425000006,           0.
    381, 0.000429999985,           0.
    382, 0.000434999994,           0.
    383, 0.000440000003,           0.
    384, 0.000445000012,           0.
    385, 0.000449999992,           0.
    386, 0.000455000001,           0.
    387, 0.00046000001,           0.
    388, 0.00046499999,           0.
    389, 0.000469999999,           0.
    390, 0.000475000008,           0.
    391, 0.000479999988,           0.
    392, 0.000484999997,           0.
    393, 0.000490000006,           0.
    394, 0.000494999986,           0.
    395, 0.000500000024, 4.99999987e-06
    396, 0.000500000024, 9.99999975e-06
    397, 0.000500000024, 1.49999996e-05
    398, 0.000500000024, 1.99999995e-05
    399, 0.000500000024, 2.49999994e-05
    400, 0.000500000024, 2.99999992e-05
    401, 0.000500000024, 3.50000009e-05
    402, 0.000500000024, 3.9999999e-05
    403, 0.000500000024, 4.50000007e-05
    404, 0.000500000024, 4.99999987e-05
    405, 0.000500000024, 5.50000004e-05
    406, 0.000500000024, 5.99999985e-05
    407, 0.000500000024, 6.50000002e-05
    408, 0.000500000024, 7.00000019e-05
    409, 0.000500000024, 7.50000036e-05
    410, 0.000500000024, 7.9999998e-05
    411, 0.000500000024, 8.49999997e-05
    412, 0.000500000024, 9.00000014e-05
    413, 0.000500000024, 9.50000031e-05
    414, 0.000500000024, 9.99999975e-05
    415, 0.000500000024, 0.000104999999
    416, 0.000500000024, 0.000110000001
    417, 0.000500000024, 0.000115000003
    418, 0.000500000024, 0.000119999997
    419, 0.000500000024, 0.000125000006
    420, 0.000500000024,      0.00013
    421, 0.000500000024, 0.000134999995
    422, 0.000500000024, 0.000140000004
    423, 0.000500000024, 0.000144999998
    424, 0.000500000024, 0.000150000007
    425, 0.000500000024, 0.000155000002
    426, 0.000500000024, 0.000159999996
    427, 0.000500000024, 0.000165000005
    428, 0.000500000024, 0.000169999999
    429, 0.000500000024, 0.000174999994
    430, 0.000500000024, 0.000180000003
    431, 0.000500000024, 0.000184999997
    432, 0.000500000024, 0.000190000006
    433, 0.000500000024, 0.000195000001
    434, 0.000494999986, 0.000199999995
    435, 0.000490000006, 0.000199999995
    436, 0.000484999997, 0.000199999995
    437, 0.000479999988, 0.000199999995
    438, 0.000475000008, 0.000199999995
    439, 0.000469999999, 0.000199999995
    440, 0.00046499999, 0.000199999995
    441, 0.00046000001, 0.000199999995
    442, 0.000455000001, 0.000199999995
    443, 0.000449999992, 0.000199999995
    444, 0.000445000012, 0.000199999995
    445, 0.000440000003, 0.000199999995
    446, 0.000434999994, 0.000199999995
    447, 0.000429999985, 0.000199999995
    448, 0.000425000006, 0.000199999995
    449, 0.000419999997, 0.000199999995
    450, 0.000414999988, 0.000199999995
    451, 0.000410000008, 0.000199999995
    452, 0.000404999999, 0.000199999995
    453, 0.00039999999, 0.000199999995
    454, 0.00039500001, 0.000199999995
    455, 0.000390000001, 0.000199999995
    456, 0.000384999992, 0.000199999995
    457, 0.000380000012, 0.000199999995
    458, 0.000375000003, 0.000199999995
    459, 0.000369999994, 0.000199999995
    460, 0.000365000014, 0.000199999995
    461, 0.000360000005, 0.000199999995
    462, 0.000354999996, 0.000199999995
    463, 0.000349999988, 0.000199999995
    464, 0.000345000008, 0.000199999995
    465, 0.000339999999, 0.000199999995
    466, 0.00033499999, 0.000199999995
    467, 0.00033000001, 0.000199999995
    468, 0.000325000001, 0.000199999995
    469, 0.000319999992, 0.000199999995
    470, 0.000315000012, 0.000199999995
    471, 0.000308499992, 4.99999987e-06
    472, 0.000308499992, 9.99999975e-06
    473, 0.000308499992, 1.49999996e-05
    474, 0.000308499992, 1.99999995e-05
    475, 0.000308499992, 2.49999994e-05
    476, 0.000308499992, 2.99999992e-05
    477, 0.000308499992, 3.50000009e-05
    478, 0.000308499992, 3.9999999e-05
    479, 0.000308499992, 4.50000007e-05
    480, 0.000308499992, 4.99999987e-05
    481, 0.000308499992, 5.50000004e-05
    482, 0.000308499992, 5.99999985e-05
    483, 0.000308499992, 6.50000002e-05
    484, 0.000308499992, 7.00000019e-05
    485, 0.000308499992, 7.50000036e-05
    486, 0.000308499992, 7.9999998e-05
    487, 0.000308499992, 8.49999997e-05
    488, 0.000308499992, 9.00000014e-05
    489, 0.000308499992, 9.50000031e-05
    490, 0.000308499992, 9.99999975e-05
    491, 0.000308499992, 0.000104999999
    492, 0.000308499992, 0.000110000001
    493, 0.000308499992, 0.000115000003
    494, 0.000308499992, 0.000119999997
    495, 0.000308499992, 0.000125000006
    496, 0.000308499992,      0.00013
    497, 0.000308499992, 0.000134999995
    498, 0.000308499992, 0.000140000004
    499, 0.000308499992, 0.000144999998
    500, 0.000308499992, 0.000150000007
    501, 0.000308499992, 0.000155000002
    502, 0.000308499992, 0.000159999996
    503, 0.000308499992, 0.000165000005
    504, 0.000308499992, 0.000169999999
    505, 0.000308499992, 0.000174999994
    506, 0.000308499992, 0.000180000003
    507, 0.000308499992, 0.000184999997
    508, 0.000308499992, 0.000190000006
    509, 0.000308499992, 0.000195000001
    510, 0.000307000009, 4.99999987e-06
    511, 0.000307000009, 9.99999975e-06
    512, 0.000307000009, 1.49999996e-05
    513, 0.000307000009, 1.99999995e-05
    514, 0.000307000009, 2.49999994e-05
    515, 0.000307000009, 2.99999992e-05
    516, 0.000307000009, 3.50000009e-05
    517, 0.000307000009, 3.9999999e-05
    518, 0.000307000009, 4.50000007e-05
    519, 0.000307000009, 4.99999987e-05
    520, 0.000307000009, 5.50000004e-05
    521, 0.000307000009, 5.99999985e-05
    522, 0.000307000009, 6.50000002e-05
    523, 0.000307000009, 7.00000019e-05
    524, 0.000307000009, 7.50000036e-05
    525, 0.000307000009, 7.9999998e-05
    526, 0.000307000009, 8.49999997e-05
    527, 0.000307000009, 9.00000014e-05
    528, 0.000307000009, 9.50000031e-05
    529, 0.000307000009, 9.99999975e-05
    530, 0.000307000009, 0.000104999999
    531, 0.000307000009, 0.000110000001
    532, 0.000307000009, 0.000115000003
    533, 0.000307000009, 0.000119999997
    534, 0.000307000009, 0.000125000006
    535, 0.000307000009,      0.00013
    536, 0.000307000009, 0.000134999995
    537, 0.000307000009, 0.000140000004
    538, 0.000307000009, 0.000144999998
    539, 0.000307000009, 0.000150000007
    540, 0.000307000009, 0.000155000002
    541, 0.000307000009, 0.000159999996
    542, 0.000307000009, 0.000165000005
    543, 0.000307000009, 0.000169999999
    544, 0.000307000009, 0.000174999994
    545, 0.000307000009, 0.000180000003
    546, 0.000307000009, 0.000184999997
    547, 0.000307000009, 0.000190000006
    548, 0.000307000009, 0.000195000001
    549, 0.000305499998, 4.99999987e-06
    550, 0.000305499998, 9.99999975e-06
    551, 0.000305499998, 1.49999996e-05
    552, 0.000305499998, 1.99999995e-05
    553, 0.000305499998, 2.49999994e-05
    554, 0.000305499998, 2.99999992e-05
    555, 0.000305499998, 3.50000009e-05
    556, 0.000305499998, 3.9999999e-05
    557, 0.000305499998, 4.50000007e-05
    558, 0.000305499998, 4.99999987e-05
    559, 0.000305499998, 5.50000004e-05
    560, 0.000305499998, 5.99999985e-05
    561, 0.000305499998, 6.50000002e-05
    562, 0.000305499998, 7.00000019e-05
    563, 0.000305499998, 7.50000036e-05
    564, 0.000305499998, 7.9999998e-05
    565, 0.000305499998, 8.49999997e-05
    566, 0.000305499998, 9.00000014e-05
    567, 0.000305499998, 9.50000031e-05
    568, 0.000305499998, 9.99999975e-05
    569, 0.000305499998, 0.000104999999
    570, 0.000305499998, 0.000110000001
    571, 0.000305499998, 0.000115000003
    572, 0.000305499998, 0.000119999997
    573, 0.000305499998, 0.000125000006
    574, 0.000305499998,      0.00013
    575, 0.000305499998, 0.000134999995
    576, 0.000305499998, 0.000140000004
    577, 0.000305499998, 0.000144999998
    578, 0.000305499998, 0.000150000007
    579, 0.000305499998, 0.000155000002
    580, 0.000305499998, 0.000159999996
    581, 0.000305499998, 0.000165000005
    582, 0.000305499998, 0.000169999999
    583, 0.000305499998, 0.000174999994
    584, 0.000305499998, 0.000180000003
    585, 0.000305499998, 0.000184999997
    586, 0.000305499998, 0.000190000006
    587, 0.000305499998, 0.000195000001
    588, 0.000303999986, 4.99999987e-06
    589, 0.000303999986, 9.99999975e-06
    590, 0.000303999986, 1.49999996e-05
    591, 0.000303999986, 1.99999995e-05
    592, 0.000303999986, 2.49999994e-05
    593, 0.000303999986, 2.99999992e-05
    594, 0.000303999986, 3.50000009e-05
    595, 0.000303999986, 3.9999999e-05
    596, 0.000303999986, 4.50000007e-05
    597, 0.000303999986, 4.99999987e-05
    598, 0.000303999986, 5.50000004e-05
    599, 0.000303999986, 5.99999985e-05
    600, 0.000303999986, 6.50000002e-05
    601, 0.000303999986, 7.00000019e-05
    602, 0.000303999986, 7.50000036e-05
    603, 0.000303999986, 7.9999998e-05
    604, 0.000303999986, 8.49999997e-05
    605, 0.000303999986, 9.00000014e-05
    606, 0.000303999986, 9.50000031e-05
    607, 0.000303999986, 9.99999975e-05
    608, 0.000303999986, 0.000104999999
    609, 0.000303999986, 0.000110000001
    610, 0.000303999986, 0.000115000003
    611, 0.000303999986, 0.000119999997
    612, 0.000303999986, 0.000125000006
    613, 0.000303999986,      0.00013
    614, 0.000303999986, 0.000134999995
    615, 0.000303999986, 0.000140000004
    616, 0.000303999986, 0.000144999998
    617, 0.000303999986, 0.000150000007
    618, 0.000303999986, 0.000155000002
    619, 0.000303999986, 0.000159999996
    620, 0.000303999986, 0.000165000005
    621, 0.000303999986, 0.000169999999
    622, 0.000303999986, 0.000174999994
    623, 0.000303999986, 0.000180000003
    624, 0.000303999986, 0.000184999997
    625, 0.000303999986, 0.000190000006
    626, 0.000303999986, 0.000195000001
    627, 0.000302500004, 4.99999987e-06
    628, 0.000302500004, 9.99999975e-06
    629, 0.000302500004, 1.49999996e-05
    630, 0.000302500004, 1.99999995e-05
    631, 0.000302500004, 2.49999994e-05
    632, 0.000302500004, 2.99999992e-05
    633, 0.000302500004, 3.50000009e-05
    634, 0.000302500004, 3.9999999e-05
    635, 0.000302500004, 4.50000007e-05
    636, 0.000302500004, 4.99999987e-05
    637, 0.000302500004, 5.50000004e-05
    638, 0.000302500004, 5.99999985e-05
    639, 0.000302500004, 6.50000002e-05
    640, 0.000302500004, 7.00000019e-05
    641, 0.000302500004, 7.50000036e-05
    642, 0.000302500004, 7.9999998e-05
    643, 0.000302500004, 8.49999997e-05
    644, 0.000302500004, 9.00000014e-05
    645, 0.000302500004, 9.50000031e-05
    646, 0.000302500004, 9.99999975e-05
    647, 0.000302500004, 0.000104999999
    648, 0.000302500004, 0.000110000001
    649, 0.000302500004, 0.000115000003
    650, 0.000302500004, 0.000119999997
    651, 0.000302500004, 0.000125000006
    652, 0.000302500004,      0.00013
    653, 0.000302500004, 0.000134999995
    654, 0.000302500004, 0.000140000004
    655, 0.000302500004, 0.000144999998
    656, 0.000302500004, 0.000150000007
    657, 0.000302500004, 0.000155000002
    658, 0.000302500004, 0.000159999996
    659, 0.000302500004, 0.000165000005
    660, 0.000302500004, 0.000169999999
    661, 0.000302500004, 0.000174999994
    662, 0.000302500004, 0.000180000003
    663, 0.000302500004, 0.000184999997
    664, 0.000302500004, 0.000190000006
    665, 0.000302500004, 0.000195000001
    666, 0.000300999993, 4.99999987e-06
    667, 0.000300999993, 9.99999975e-06
    668, 0.000300999993, 1.49999996e-05
    669, 0.000300999993, 1.99999995e-05
    670, 0.000300999993, 2.49999994e-05
    671, 0.000300999993, 2.99999992e-05
    672, 0.000300999993, 3.50000009e-05
    673, 0.000300999993, 3.9999999e-05
    674, 0.000300999993, 4.50000007e-05
    675, 0.000300999993, 4.99999987e-05
    676, 0.000300999993, 5.50000004e-05
    677, 0.000300999993, 5.99999985e-05
    678, 0.000300999993, 6.50000002e-05
    679, 0.000300999993, 7.00000019e-05
    680, 0.000300999993, 7.50000036e-05
    681, 0.000300999993, 7.9999998e-05
    682, 0.000300999993, 8.49999997e-05
    683, 0.000300999993, 9.00000014e-05
    684, 0.000300999993, 9.50000031e-05
    685, 0.000300999993, 9.99999975e-05
    686, 0.000300999993, 0.000104999999
    687, 0.000300999993, 0.000110000001
    688, 0.000300999993, 0.000115000003
    689, 0.000300999993, 0.000119999997
    690, 0.000300999993, 0.000125000006
    691, 0.000300999993,      0.00013
    692, 0.000300999993, 0.000134999995
    693, 0.000300999993, 0.000140000004
    694, 0.000300999993, 0.000144999998
    695, 0.000300999993, 0.000150000007
    696, 0.000300999993, 0.000155000002
    697, 0.000300999993, 0.000159999996
    698, 0.000300999993, 0.000165000005
    699, 0.000300999993, 0.000169999999
    700, 0.000300999993, 0.000174999994
    701, 0.000300999993, 0.000180000003
    702, 0.000300999993, 0.000184999997
    703, 0.000300999993, 0.000190000006
    704, 0.000300999993, 0.000195000001
    705, 0.00029950001, 4.99999987e-06
    706, 0.00029950001, 9.99999975e-06
    707, 0.00029950001, 1.49999996e-05
    708, 0.00029950001, 1.99999995e-05
    709, 0.00029950001, 2.49999994e-05
    710, 0.00029950001, 2.99999992e-05
    711, 0.00029950001, 3.50000009e-05
    712, 0.00029950001, 3.9999999e-05
    713, 0.00029950001, 4.50000007e-05
    714, 0.00029950001, 4.99999987e-05
    715, 0.00029950001, 5.50000004e-05
    716, 0.00029950001, 5.99999985e-05
    717, 0.00029950001, 6.50000002e-05
    718, 0.00029950001, 7.00000019e-05
    719, 0.00029950001, 7.50000036e-05
    720, 0.00029950001, 7.9999998e-05
    721, 0.00029950001, 8.49999997e-05
    722, 0.00029950001, 9.00000014e-05
    723, 0.00029950001, 9.50000031e-05
    724, 0.00029950001, 9.99999975e-05
    725, 0.00029950001, 0.000104999999
    726, 0.00029950001, 0.000110000001
    727, 0.00029950001, 0.000115000003
    728, 0.00029950001, 0.000119999997
    729, 0.00029950001, 0.000125000006
    730, 0.00029950001,      0.00013
    731, 0.00029950001, 0.000134999995
    732, 0.00029950001, 0.000140000004
    733, 0.00029950001, 0.000144999998
    734, 0.00029950001, 0.000150000007
    735, 0.00029950001, 0.000155000002
    736, 0.00029950001, 0.000159999996
    737, 0.00029950001, 0.000165000005
    738, 0.00029950001, 0.000169999999
    739, 0.00029950001, 0.000174999994
    740, 0.00029950001, 0.000180000003
    741, 0.00029950001, 0.000184999997
    742, 0.00029950001, 0.000190000006
    743, 0.00029950001, 0.000195000001
    744, 0.000297999999, 4.99999987e-06
    745, 0.000297999999, 9.99999975e-06
    746, 0.000297999999, 1.49999996e-05
    747, 0.000297999999, 1.99999995e-05
    748, 0.000297999999, 2.49999994e-05
    749, 0.000297999999, 2.99999992e-05
    750, 0.000297999999, 3.50000009e-05
    751, 0.000297999999, 3.9999999e-05
    752, 0.000297999999, 4.50000007e-05
    753, 0.000297999999, 4.99999987e-05
    754, 0.000297999999, 5.50000004e-05
    755, 0.000297999999, 5.99999985e-05
    756, 0.000297999999, 6.50000002e-05
    757, 0.000297999999, 7.00000019e-05
    758, 0.000297999999, 7.50000036e-05
    759, 0.000297999999, 7.9999998e-05
    760, 0.000297999999, 8.49999997e-05
    761, 0.000297999999, 9.00000014e-05
    762, 0.000297999999, 9.50000031e-05
    763, 0.000297999999, 9.99999975e-05
    764, 0.000297999999, 0.000104999999
    765, 0.000297999999, 0.000110000001
    766, 0.000297999999, 0.000115000003
    767, 0.000297999999, 0.000119999997
    768, 0.000297999999, 0.000125000006
    769, 0.000297999999,      0.00013
    770, 0.000297999999, 0.000134999995
    771, 0.000297999999, 0.000140000004
    772, 0.000297999999, 0.000144999998
    773, 0.000297999999, 0.000150000007
    774, 0.000297999999, 0.000155000002
    775, 0.000297999999, 0.000159999996
    776, 0.000297999999, 0.000165000005
    777, 0.000297999999, 0.000169999999
    778, 0.000297999999, 0.000174999994
    779, 0.000297999999, 0.000180000003
    780, 0.000297999999, 0.000184999997
    781, 0.000297999999, 0.000190000006
    782, 0.000297999999, 0.000195000001
    783, 0.000296499988, 4.99999987e-06
    784, 0.000296499988, 9.99999975e-06
    785, 0.000296499988, 1.49999996e-05
    786, 0.000296499988, 1.99999995e-05
    787, 0.000296499988, 2.49999994e-05
    788, 0.000296499988, 2.99999992e-05
    789, 0.000296499988, 3.50000009e-05
    790, 0.000296499988, 3.9999999e-05
    791, 0.000296499988, 4.50000007e-05
    792, 0.000296499988, 4.99999987e-05
    793, 0.000296499988, 5.50000004e-05
    794, 0.000296499988, 5.99999985e-05
    795, 0.000296499988, 6.50000002e-05
    796, 0.000296499988, 7.00000019e-05
    797, 0.000296499988, 7.50000036e-05
    798, 0.000296499988, 7.9999998e-05
    799, 0.000296499988, 8.49999997e-05
    800, 0.000296499988, 9.00000014e-05
    801, 0.000296499988, 9.50000031e-05
    802, 0.000296499988, 9.99999975e-05
    803, 0.000296499988, 0.000104999999
    804, 0.000296499988, 0.000110000001
    805, 0.000296499988, 0.000115000003
    806, 0.000296499988, 0.000119999997
    807, 0.000296499988, 0.000125000006
    808, 0.000296499988,      0.00013
    809, 0.000296499988, 0.000134999995
    810, 0.000296499988, 0.000140000004
    811, 0.000296499988, 0.000144999998
    812, 0.000296499988, 0.000150000007
    813, 0.000296499988, 0.000155000002
    814, 0.000296499988, 0.000159999996
    815, 0.000296499988, 0.000165000005
    816, 0.000296499988, 0.000169999999
    817, 0.000296499988, 0.000174999994
    818, 0.000296499988, 0.000180000003
    819, 0.000296499988, 0.000184999997
    820, 0.000296499988, 0.000190000006
    821, 0.000296499988, 0.000195000001
    822, 0.000295000005, 4.99999987e-06
    823, 0.000295000005, 9.99999975e-06
    824, 0.000295000005, 1.49999996e-05
    825, 0.000295000005, 1.99999995e-05
    826, 0.000295000005, 2.49999994e-05
    827, 0.000295000005, 2.99999992e-05
    828, 0.000295000005, 3.50000009e-05
    829, 0.000295000005, 3.9999999e-05
    830, 0.000295000005, 4.50000007e-05
    831, 0.000295000005, 4.99999987e-05
    832, 0.000295000005, 5.50000004e-05
    833, 0.000295000005, 5.99999985e-05
    834, 0.000295000005, 6.50000002e-05
    835, 0.000295000005, 7.00000019e-05
    836, 0.000295000005, 7.50000036e-05
    837, 0.000295000005, 7.9999998e-05
    838, 0.000295000005, 8.49999997e-05
    839, 0.000295000005, 9.00000014e-05
    840, 0.000295000005, 9.50000031e-05
    841, 0.000295000005, 9.99999975e-05
    842, 0.000295000005, 0.000104999999
    843, 0.000295000005, 0.000110000001
    844, 0.000295000005, 0.000115000003
    845, 0.000295000005, 0.000119999997
    846, 0.000295000005, 0.000125000006
    847, 0.000295000005,      0.00013
    848, 0.000295000005, 0.000134999995
    849, 0.000295000005, 0.000140000004
    850, 0.000295000005, 0.000144999998
    851, 0.000295000005, 0.000150000007
    852, 0.000295000005, 0.000155000002
    853, 0.000295000005, 0.000159999996
    854, 0.000295000005, 0.000165000005
    855, 0.000295000005, 0.000169999999
    856, 0.000295000005, 0.000174999994
    857, 0.000295000005, 0.000180000003
    858, 0.000295000005, 0.000184999997
    859, 0.000295000005, 0.000190000006
    860, 0.000295000005, 0.000195000001
    861, 0.000293499994, 4.99999987e-06
    862, 0.000293499994, 9.99999975e-06
    863, 0.000293499994, 1.49999996e-05
    864, 0.000293499994, 1.99999995e-05
    865, 0.000293499994, 2.49999994e-05
    866, 0.000293499994, 2.99999992e-05
    867, 0.000293499994, 3.50000009e-05
    868, 0.000293499994, 3.9999999e-05
    869, 0.000293499994, 4.50000007e-05
    870, 0.000293499994, 4.99999987e-05
    871, 0.000293499994, 5.50000004e-05
    872, 0.000293499994, 5.99999985e-05
    873, 0.000293499994, 6.50000002e-05
    874, 0.000293499994, 7.00000019e-05
    875, 0.000293499994, 7.50000036e-05
    876, 0.000293499994, 7.9999998e-05
    877, 0.000293499994, 8.49999997e-05
    878, 0.000293499994, 9.00000014e-05
    879, 0.000293499994, 9.50000031e-05
    880, 0.000293499994, 9.99999975e-05
    881, 0.000293499994, 0.000104999999
    882, 0.000293499994, 0.000110000001
    883, 0.000293499994, 0.000115000003
    884, 0.000293499994, 0.000119999997
    885, 0.000293499994, 0.000125000006
    886, 0.000293499994,      0.00013
    887, 0.000293499994, 0.000134999995
    888, 0.000293499994, 0.000140000004
    889, 0.000293499994, 0.000144999998
    890, 0.000293499994, 0.000150000007
    891, 0.000293499994, 0.000155000002
    892, 0.000293499994, 0.000159999996
    893, 0.000293499994, 0.000165000005
    894, 0.000293499994, 0.000169999999
    895, 0.000293499994, 0.000174999994
    896, 0.000293499994, 0.000180000003
    897, 0.000293499994, 0.000184999997
    898, 0.000293499994, 0.000190000006
    899, 0.000293499994, 0.000195000001
    900, 0.000292000012, 4.99999987e-06
    901, 0.000292000012, 9.99999975e-06
    902, 0.000292000012, 1.49999996e-05
    903, 0.000292000012, 1.99999995e-05
    904, 0.000292000012, 2.49999994e-05
    905, 0.000292000012, 2.99999992e-05
    906, 0.000292000012, 3.50000009e-05
    907, 0.000292000012, 3.9999999e-05
    908, 0.000292000012, 4.50000007e-05
    909, 0.000292000012, 4.99999987e-05
    910, 0.000292000012, 5.50000004e-05
    911, 0.000292000012, 5.99999985e-05
    912, 0.000292000012, 6.50000002e-05
    913, 0.000292000012, 7.00000019e-05
    914, 0.000292000012, 7.50000036e-05
    915, 0.000292000012, 7.9999998e-05
    916, 0.000292000012, 8.49999997e-05
    917, 0.000292000012, 9.00000014e-05
    918, 0.000292000012, 9.50000031e-05
    919, 0.000292000012, 9.99999975e-05
    920, 0.000292000012, 0.000104999999
    921, 0.000292000012, 0.000110000001
    922, 0.000292000012, 0.000115000003
    923, 0.000292000012, 0.000119999997
    924, 0.000292000012, 0.000125000006
    925, 0.000292000012,      0.00013
    926, 0.000292000012, 0.000134999995
    927, 0.000292000012, 0.000140000004
    928, 0.000292000012, 0.000144999998
    929, 0.000292000012, 0.000150000007
    930, 0.000292000012, 0.000155000002
    931, 0.000292000012, 0.000159999996
    932, 0.000292000012, 0.000165000005
    933, 0.000292000012, 0.000169999999
    934, 0.000292000012, 0.000174999994
    935, 0.000292000012, 0.000180000003
    936, 0.000292000012, 0.000184999997
    937, 0.000292000012, 0.000190000006
    938, 0.000292000012, 0.000195000001
    939,    0.0002905, 4.99999987e-06
    940,    0.0002905, 9.99999975e-06
    941,    0.0002905, 1.49999996e-05
    942,    0.0002905, 1.99999995e-05
    943,    0.0002905, 2.49999994e-05
    944,    0.0002905, 2.99999992e-05
    945,    0.0002905, 3.50000009e-05
    946,    0.0002905, 3.9999999e-05
    947,    0.0002905, 4.50000007e-05
    948,    0.0002905, 4.99999987e-05
    949,    0.0002905, 5.50000004e-05
    950,    0.0002905, 5.99999985e-05
    951,    0.0002905, 6.50000002e-05
    952,    0.0002905, 7.00000019e-05
    953,    0.0002905, 7.50000036e-05
    954,    0.0002905, 7.9999998e-05
    955,    0.0002905, 8.49999997e-05
    956,    0.0002905, 9.00000014e-05
    957,    0.0002905, 9.50000031e-05
    958,    0.0002905, 9.99999975e-05
    959,    0.0002905, 0.000104999999
    960,    0.0002905, 0.000110000001
    961,    0.0002905, 0.000115000003
    962,    0.0002905, 0.000119999997
    963,    0.0002905, 0.000125000006
    964,    0.0002905,      0.00013
    965,    0.0002905, 0.000134999995
    966,    0.0002905, 0.000140000004
    967,    0.0002905, 0.000144999998
    968,    0.0002905, 0.000150000007
    969,    0.0002905, 0.000155000002
    970,    0.0002905, 0.000159999996
    971,    0.0002905, 0.000165000005
    972,    0.0002905, 0.000169999999
    973,    0.0002905, 0.000174999994
    974,    0.0002905, 0.000180000003
    975,    0.0002905, 0.000184999997
    976,    0.0002905, 0.000190000006
    977,    0.0002905, 0.000195000001
    978, 0.000288999989, 4.99999987e-06
    979, 0.000288999989, 9.99999975e-06
    980, 0.000288999989, 1.49999996e-05
    981, 0.000288999989, 1.99999995e-05
    982, 0.000288999989, 2.49999994e-05
    983, 0.000288999989, 2.99999992e-05
    984, 0.000288999989, 3.50000009e-05
    985, 0.000288999989, 3.9999999e-05
    986, 0.000288999989, 4.50000007e-05
    987, 0.000288999989, 4.99999987e-05
    988, 0.000288999989, 5.50000004e-05
    989, 0.000288999989, 5.99999985e-05
    990, 0.000288999989, 6.50000002e-05
    991, 0.000288999989, 7.00000019e-05
    992, 0.000288999989, 7.50000036e-05
    993, 0.000288999989, 7.9999998e-05
    994, 0.000288999989, 8.49999997e-05
    995, 0.000288999989, 9.00000014e-05
    996, 0.000288999989, 9.50000031e-05
    997, 0.000288999989, 9.99999975e-05
    998, 0.000288999989, 0.000104999999
    999, 0.000288999989, 0.000110000001
   1000, 0.000288999989, 0.000115000003
   1001, 0.000288999989, 0.000119999997
   1002, 0.000288999989, 0.000125000006
   1003, 0.000288999989,      0.00013
   1004, 0.000288999989, 0.000134999995
   1005, 0.000288999989, 0.000140000004
   1006, 0.000288999989, 0.000144999998
   1007, 0.000288999989, 0.000150000007
   1008, 0.000288999989, 0.000155000002
   1009, 0.000288999989, 0.000159999996
   1010, 0.000288999989, 0.000165000005
   1011, 0.000288999989, 0.000169999999
   1012, 0.000288999989, 0.000174999994
   1013, 0.000288999989, 0.000180000003
   1014, 0.000288999989, 0.000184999997
   1015, 0.000288999989, 0.000190000006
   1016, 0.000288999989, 0.000195000001
   1017, 0.000287500006, 4.99999987e-06
   1018, 0.000287500006, 9.99999975e-06
   1019, 0.000287500006, 1.49999996e-05
   1020, 0.000287500006, 1.99999995e-05
   1021, 0.000287500006, 2.49999994e-05
   1022, 0.000287500006, 2.99999992e-05
   1023, 0.000287500006, 3.50000009e-05
   1024, 0.000287500006, 3.9999999e-05
   1025, 0.000287500006, 4.50000007e-05
   1026, 0.000287500006, 4.99999987e-05
   1027, 0.000287500006, 5.50000004e-05
   1028, 0.000287500006, 5.99999985e-05
   1029, 0.000287500006, 6.50000002e-05
   1030, 0.000287500006, 7.00000019e-05
   1031, 0.000287500006, 7.50000036e-05
   1032, 0.000287500006, 7.9999998e-05
   1033, 0.000287500006, 8.49999997e-05
   1034, 0.000287500006, 9.00000014e-05
   1035, 0.000287500006, 9.50000031e-05
   1036, 0.000287500006, 9.99999975e-05
   1037, 0.000287500006, 0.000104999999
   1038, 0.000287500006, 0.000110000001
   1039, 0.000287500006, 0.000115000003
   1040, 0.000287500006, 0.000119999997
   1041, 0.000287500006, 0.000125000006
   1042, 0.000287500006,      0.00013
   1043, 0.000287500006, 0.000134999995
   1044, 0.000287500006, 0.000140000004
   1045, 0.000287500006, 0.000144999998
   1046, 0.000287500006, 0.000150000007
   1047, 0.000287500006, 0.000155000002
   1048, 0.000287500006, 0.000159999996
   1049, 0.000287500006, 0.000165000005
   1050, 0.000287500006, 0.000169999999
   1051, 0.000287500006, 0.000174999994
   1052, 0.000287500006, 0.000180000003
   1053, 0.000287500006, 0.000184999997
   1054, 0.000287500006, 0.000190000006
   1055, 0.000287500006, 0.000195000001
   1056, 0.000285999995, 4.99999987e-06
   1057, 0.000285999995, 9.99999975e-06
   1058, 0.000285999995, 1.49999996e-05
   1059, 0.000285999995, 1.99999995e-05
   1060, 0.000285999995, 2.49999994e-05
   1061, 0.000285999995, 2.99999992e-05
   1062, 0.000285999995, 3.50000009e-05
   1063, 0.000285999995, 3.9999999e-05
   1064, 0.000285999995, 4.50000007e-05
   1065, 0.000285999995, 4.99999987e-05
   1066, 0.000285999995, 5.50000004e-05
   1067, 0.000285999995, 5.99999985e-05
   1068, 0.000285999995, 6.50000002e-05
   1069, 0.000285999995, 7.00000019e-05
   1070, 0.000285999995, 7.50000036e-05
   1071, 0.000285999995, 7.9999998e-05
   1072, 0.000285999995, 8.49999997e-05
   1073, 0.000285999995, 9.00000014e-05
   1074, 0.000285999995, 9.50000031e-05
   1075, 0.000285999995, 9.99999975e-05
   1076, 0.000285999995, 0.000104999999
   1077, 0.000285999995, 0.000110000001
   1078, 0.000285999995, 0.000115000003
   1079, 0.000285999995, 0.000119999997
   1080, 0.000285999995, 0.000125000006
   1081, 0.000285999995,      0.00013
   1082, 0.000285999995, 0.000134999995
   1083, 0.000285999995, 0.000140000004
   1084, 0.000285999995, 0.000144999998
   1085, 0.000285999995, 0.000150000007
   1086, 0.000285999995, 0.000155000002
   1087, 0.000285999995, 0.000159999996
   1088, 0.000285999995, 0.000165000005
   1089, 0.000285999995, 0.000169999999
   1090, 0.000285999995, 0.000174999994
   1091, 0.000285999995, 0.000180000003
   1092, 0.000285999995, 0.000184999997
   1093, 0.000285999995, 0.000190000006
   1094, 0.000285999995, 0.000195000001
   1095, 0.000284500013, 4.99999987e-06
   1096, 0.000284500013, 9.99999975e-06
   1097, 0.000284500013, 1.49999996e-05
   1098, 0.000284500013, 1.99999995e-05
   1099, 0.000284500013, 2.49999994e-05
   1100, 0.000284500013, 2.99999992e-05
   1101, 0.000284500013, 3.50000009e-05
   1102, 0.000284500013, 3.9999999e-05
   1103, 0.000284500013, 4.50000007e-05
   1104, 0.000284500013, 4.99999987e-05
   1105, 0.000284500013, 5.50000004e-05
   1106, 0.000284500013, 5.99999985e-05
   1107, 0.000284500013, 6.50000002e-05
   1108, 0.000284500013, 7.00000019e-05
   1109, 0.000284500013, 7.50000036e-05
   1110, 0.000284500013, 7.9999998e-05
   1111, 0.000284500013, 8.49999997e-05
   1112, 0.000284500013, 9.00000014e-05
   1113, 0.000284500013, 9.50000031e-05
   1114, 0.000284500013, 9.99999975e-05
   1115, 0.000284500013, 0.000104999999
   1116, 0.000284500013, 0.000110000001
   1117, 0.000284500013, 0.000115000003
   1118, 0.000284500013, 0.000119999997
   1119, 0.000284500013, 0.000125000006
   1120, 0.000284500013,      0.00013
   1121, 0.000284500013, 0.000134999995
   1122, 0.000284500013, 0.000140000004
   1123, 0.000284500013, 0.000144999998
   1124, 0.000284500013, 0.000150000007
   1125, 0.000284500013, 0.000155000002
   1126, 0.000284500013, 0.000159999996
   1127, 0.000284500013, 0.000165000005
   1128, 0.000284500013, 0.000169999999
   1129, 0.000284500013, 0.000174999994
   1130, 0.000284500013, 0.000180000003
   1131, 0.000284500013, 0.000184999997
   1132, 0.000284500013, 0.000190000006
   1133, 0.000284500013, 0.000195000001
   1134, 0.000283000001, 4.99999987e-06
   1135, 0.000283000001, 9.99999975e-06
   1136, 0.000283000001, 1.49999996e-05
   1137, 0.000283000001, 1.99999995e-05
   1138, 0.000283000001, 2.49999994e-05
   1139, 0.000283000001, 2.99999992e-05
   1140, 0.000283000001, 3.50000009e-05
   1141, 0.000283000001, 3.9999999e-05
   1142, 0.000283000001, 4.50000007e-05
   1143, 0.000283000001, 4.99999987e-05
   1144, 0.000283000001, 5.50000004e-05
   1145, 0.000283000001, 5.99999985e-05
   1146, 0.000283000001, 6.50000002e-05
   1147, 0.000283000001, 7.00000019e-05
   1148, 0.000283000001, 7.50000036e-05
   1149, 0.000283000001, 7.9999998e-05
   1150, 0.000283000001, 8.49999997e-05
   1151, 0.000283000001, 9.00000014e-05
   1152, 0.000283000001, 9.50000031e-05
   1153, 0.000283000001, 9.99999975e-05
   1154, 0.000283000001, 0.000104999999
   1155, 0.000283000001, 0.000110000001
   1156, 0.000283000001, 0.000115000003
   1157, 0.000283000001, 0.000119999997
   1158, 0.000283000001, 0.000125000006
   1159, 0.000283000001,      0.00013
   1160, 0.000283000001, 0.000134999995
   1161, 0.000283000001, 0.000140000004
   1162, 0.000283000001, 0.000144999998
   1163, 0.000283000001, 0.000150000007
   1164, 0.000283000001, 0.000155000002
   1165, 0.000283000001, 0.000159999996
   1166, 0.000283000001, 0.000165000005
   1167, 0.000283000001, 0.000169999999
   1168, 0.000283000001, 0.000174999994
   1169, 0.000283000001, 0.000180000003
   1170, 0.000283000001, 0.000184999997
   1171, 0.000283000001, 0.000190000006
   1172, 0.000283000001, 0.000195000001
   1173, 0.00028149999, 4.99999987e-06
   1174, 0.00028149999, 9.99999975e-06
   1175, 0.00028149999, 1.49999996e-05
   1176, 0.00028149999, 1.99999995e-05
   1177, 0.00028149999, 2.49999994e-05
   1178, 0.00028149999, 2.99999992e-05
   1179, 0.00028149999, 3.50000009e-05
   1180, 0.00028149999, 3.9999999e-05
   1181, 0.00028149999, 4.50000007e-05
   1182, 0.00028149999, 4.99999987e-05
   1183, 0.00028149999, 5.50000004e-05
   1184, 0.00028149999, 5.99999985e-05
   1185, 0.00028149999, 6.50000002e-05
   1186, 0.00028149999, 7.00000019e-05
   1187, 0.00028149999, 7.50000036e-05
   1188, 0.00028149999, 7.9999998e-05
   1189, 0.00028149999, 8.49999997e-05
   1190, 0.00028149999, 9.00000014e-05
   1191, 0.00028149999, 9.50000031e-05
   1192, 0.00028149999, 9.99999975e-05
   1193, 0.00028149999, 0.000104999999
   1194, 0.00028149999, 0.000110000001
   1195, 0.00028149999, 0.000115000003
   1196, 0.00028149999, 0.000119999997
   1197, 0.00028149999, 0.000125000006
   1198, 0.00028149999,      0.00013
   1199, 0.00028149999, 0.000134999995
   1200, 0.00028149999, 0.000140000004
   1201, 0.00028149999, 0.000144999998
   1202, 0.00028149999, 0.000150000007
   1203, 0.00028149999, 0.000155000002
   1204, 0.00028149999, 0.000159999996
   1205, 0.00028149999, 0.000165000005
   1206, 0.00028149999, 0.000169999999
   1207, 0.00028149999, 0.000174999994
   1208, 0.00028149999, 0.000180000003
   1209, 0.00028149999, 0.000184999997
   1210, 0.00028149999, 0.000190000006
   1211, 0.00028149999, 0.000195000001
   1212, 0.000280000007, 4.99999987e-06
   1213, 0.000280000007, 9.99999975e-06
   1214, 0.000280000007, 1.49999996e-05
   1215, 0.000280000007, 1.99999995e-05
   1216, 0.000280000007, 2.49999994e-05
   1217, 0.000280000007, 2.99999992e-05
   1218, 0.000280000007, 3.50000009e-05
   1219, 0.000280000007, 3.9999999e-05
   1220, 0.000280000007, 4.50000007e-05
   1221, 0.000280000007, 4.99999987e-05
   1222, 0.000280000007, 5.50000004e-05
   1223, 0.000280000007, 5.99999985e-05
   1224, 0.000280000007, 6.50000002e-05
   1225, 0.000280000007, 7.00000019e-05
   1226, 0.000280000007, 7.50000036e-05
   1227, 0.000280000007, 7.9999998e-05
   1228, 0.000280000007, 8.49999997e-05
   1229, 0.000280000007, 9.00000014e-05
   1230, 0.000280000007, 9.50000031e-05
   1231, 0.000280000007, 9.99999975e-05
   1232, 0.000280000007, 0.000104999999
   1233, 0.000280000007, 0.000110000001
   1234, 0.000280000007, 0.000115000003
   1235, 0.000280000007, 0.000119999997
   1236, 0.000280000007, 0.000125000006
   1237, 0.000280000007,      0.00013
   1238, 0.000280000007, 0.000134999995
   1239, 0.000280000007, 0.000140000004
   1240, 0.000280000007, 0.000144999998
   1241, 0.000280000007, 0.000150000007
   1242, 0.000280000007, 0.000155000002
   1243, 0.000280000007, 0.000159999996
   1244, 0.000280000007, 0.000165000005
   1245, 0.000280000007, 0.000169999999
   1246, 0.000280000007, 0.000174999994
   1247, 0.000280000007, 0.000180000003
   1248, 0.000280000007, 0.000184999997
   1249, 0.000280000007, 0.000190000006
   1250, 0.000280000007, 0.000195000001
   1251, 0.000278499996, 4.99999987e-06
   1252, 0.000278499996, 9.99999975e-06
   1253, 0.000278499996, 1.49999996e-05
   1254, 0.000278499996, 1.99999995e-05
   1255, 0.000278499996, 2.49999994e-05
   1256, 0.000278499996, 2.99999992e-05
   1257, 0.000278499996, 3.50000009e-05
   1258, 0.000278499996, 3.9999999e-05
   1259, 0.000278499996, 4.50000007e-05
   1260, 0.000278499996, 4.99999987e-05
   1261, 0.000278499996, 5.50000004e-05
   1262, 0.000278499996, 5.99999985e-05
   1263, 0.000278499996, 6.50000002e-05
   1264, 0.000278499996, 7.00000019e-05
   1265, 0.000278499996, 7.50000036e-05
   1266, 0.000278499996, 7.9999998e-05
   1267, 0.000278499996, 8.49999997e-05
   1268, 0.000278499996, 9.00000014e-05
   1269, 0.000278499996, 9.50000031e-05
   1270, 0.000278499996, 9.99999975e-05
   1271, 0.000278499996, 0.000104999999
   1272, 0.000278499996, 0.000110000001
   1273, 0.000278499996, 0.000115000003
   1274, 0.000278499996, 0.000119999997
   1275, 0.000278499996, 0.000125000006
   1276, 0.000278499996,      0.00013
   1277, 0.000278499996, 0.000134999995
   1278, 0.000278499996, 0.000140000004
   1279, 0.000278499996, 0.000144999998
   1280, 0.000278499996, 0.000150000007
   1281, 0.000278499996, 0.000155000002
   1282, 0.000278499996, 0.000159999996
   1283, 0.000278499996, 0.000165000005
   1284, 0.000278499996, 0.000169999999
   1285, 0.000278499996, 0.000174999994
   1286, 0.000278499996, 0.000180000003
   1287, 0.000278499996, 0.000184999997
   1288, 0.000278499996, 0.000190000006
   1289, 0.000278499996, 0.000195000001
   1290, 0.000277000014, 4.99999987e-06
   1291, 0.000277000014, 9.99999975e-06
   1292, 0.000277000014, 1.49999996e-05
   1293, 0.000277000014, 1.99999995e-05
   1294, 0.000277000014, 2.49999994e-05
   1295, 0.000277000014, 2.99999992e-05
   1296, 0.000277000014, 3.50000009e-05
   1297, 0.000277000014, 3.9999999e-05
   1298, 0.000277000014, 4.50000007e-05
   1299, 0.000277000014, 4.99999987e-05
   1300, 0.000277000014, 5.50000004e-05
   1301, 0.000277000014, 5.99999985e-05
   1302, 0.000277000014, 6.50000002e-05
   1303, 0.000277000014, 7.00000019e-05
   1304, 0.000277000014, 7.50000036e-05
   1305, 0.000277000014, 7.9999998e-05
   1306, 0.000277000014, 8.49999997e-05
   1307, 0.000277000014, 9.00000014e-05
   1308, 0.000277000014, 9.50000031e-05
   1309, 0.000277000014, 9.99999975e-05
   1310, 0.000277000014, 0.000104999999
   1311, 0.000277000014, 0.000110000001
   1312, 0.000277000014, 0.000115000003
   1313, 0.000277000014, 0.000119999997
   1314, 0.000277000014, 0.000125000006
   1315, 0.000277000014,      0.00013
   1316, 0.000277000014, 0.000134999995
   1317, 0.000277000014, 0.000140000004
   1318, 0.000277000014, 0.000144999998
   1319, 0.000277000014, 0.000150000007
   1320, 0.000277000014, 0.000155000002
   1321, 0.000277000014, 0.000159999996
   1322, 0.000277000014, 0.000165000005
   1323, 0.000277000014, 0.000169999999
   1324, 0.000277000014, 0.000174999994
   1325, 0.000277000014, 0.000180000003
   1326, 0.000277000014, 0.000184999997
   1327, 0.000277000014, 0.000190000006
   1328, 0.000277000014, 0.000195000001
   1329, 0.000275500002, 4.99999987e-06
   1330, 0.000275500002, 9.99999975e-06
   1331, 0.000275500002, 1.49999996e-05
   1332, 0.000275500002, 1.99999995e-05
   1333, 0.000275500002, 2.49999994e-05
   1334, 0.000275500002, 2.99999992e-05
   1335, 0.000275500002, 3.50000009e-05
   1336, 0.000275500002, 3.9999999e-05
   1337, 0.000275500002, 4.50000007e-05
   1338, 0.000275500002, 4.99999987e-05
   1339, 0.000275500002, 5.50000004e-05
   1340, 0.000275500002, 5.99999985e-05
   1341, 0.000275500002, 6.50000002e-05
   1342, 0.000275500002, 7.00000019e-05
   1343, 0.000275500002, 7.50000036e-05
   1344, 0.000275500002, 7.9999998e-05
   1345, 0.000275500002, 8.49999997e-05
   1346, 0.000275500002, 9.00000014e-05
   1347, 0.000275500002, 9.50000031e-05
   1348, 0.000275500002, 9.99999975e-05
   1349, 0.000275500002, 0.000104999999
   1350, 0.000275500002, 0.000110000001
   1351, 0.000275500002, 0.000115000003
   1352, 0.000275500002, 0.000119999997
   1353, 0.000275500002, 0.000125000006
   1354, 0.000275500002,      0.00013
   1355, 0.000275500002, 0.000134999995
   1356, 0.000275500002, 0.000140000004
   1357, 0.000275500002, 0.000144999998
   1358, 0.000275500002, 0.000150000007
   1359, 0.000275500002, 0.000155000002
   1360, 0.000275500002, 0.000159999996
   1361, 0.000275500002, 0.000165000005
   1362, 0.000275500002, 0.000169999999
   1363, 0.000275500002, 0.000174999994
   1364, 0.000275500002, 0.000180000003
   1365, 0.000275500002, 0.000184999997
   1366, 0.000275500002, 0.000190000006
   1367, 0.000275500002, 0.000195000001
   1368, 0.000273999991, 4.99999987e-06
   1369, 0.000273999991, 9.99999975e-06
   1370, 0.000273999991, 1.49999996e-05
   1371, 0.000273999991, 1.99999995e-05
   1372, 0.000273999991, 2.49999994e-05
   1373, 0.000273999991, 2.99999992e-05
   1374, 0.000273999991, 3.50000009e-05
   1375, 0.000273999991, 3.9999999e-05
   1376, 0.000273999991, 4.50000007e-05
   1377, 0.000273999991, 4.99999987e-05
   1378, 0.000273999991, 5.50000004e-05
   1379, 0.000273999991, 5.99999985e-05
   1380, 0.000273999991, 6.50000002e-05
   1381, 0.000273999991, 7.00000019e-05
   1382, 0.000273999991, 7.50000036e-05
   1383, 0.000273999991, 7.9999998e-05
   1384, 0.000273999991, 8.49999997e-05
   1385, 0.000273999991, 9.00000014e-05
   1386, 0.000273999991, 9.50000031e-05
   1387, 0.000273999991, 9.99999975e-05
   1388, 0.000273999991, 0.000104999999
   1389, 0.000273999991, 0.000110000001
   1390, 0.000273999991, 0.000115000003
   1391, 0.000273999991, 0.000119999997
   1392, 0.000273999991, 0.000125000006
   1393, 0.000273999991,      0.00013
   1394, 0.000273999991, 0.000134999995
   1395, 0.000273999991, 0.000140000004
   1396, 0.000273999991, 0.000144999998
   1397, 0.000273999991, 0.000150000007
   1398, 0.000273999991, 0.000155000002
   1399, 0.000273999991, 0.000159999996
   1400, 0.000273999991, 0.000165000005
   1401, 0.000273999991, 0.000169999999
   1402, 0.000273999991, 0.000174999994
   1403, 0.000273999991, 0.000180000003
   1404, 0.000273999991, 0.000184999997
   1405, 0.000273999991, 0.000190000006
   1406, 0.000273999991, 0.000195000001
   1407, 0.000272500009, 4.99999987e-06
   1408, 0.000272500009, 9.99999975e-06
   1409, 0.000272500009, 1.49999996e-05
   1410, 0.000272500009, 1.99999995e-05
   1411, 0.000272500009, 2.49999994e-05
   1412, 0.000272500009, 2.99999992e-05
   1413, 0.000272500009, 3.50000009e-05
   1414, 0.000272500009, 3.9999999e-05
   1415, 0.000272500009, 4.50000007e-05
   1416, 0.000272500009, 4.99999987e-05
   1417, 0.000272500009, 5.50000004e-05
   1418, 0.000272500009, 5.99999985e-05
   1419, 0.000272500009, 6.50000002e-05
   1420, 0.000272500009, 7.00000019e-05
   1421, 0.000272500009, 7.50000036e-05
   1422, 0.000272500009, 7.9999998e-05
   1423, 0.000272500009, 8.49999997e-05
   1424, 0.000272500009, 9.00000014e-05
   1425, 0.000272500009, 9.50000031e-05
   1426, 0.000272500009, 9.99999975e-05
   1427, 0.000272500009, 0.000104999999
   1428, 0.000272500009, 0.000110000001
   1429, 0.000272500009, 0.000115000003
   1430, 0.000272500009, 0.000119999997
   1431, 0.000272500009, 0.000125000006
   1432, 0.000272500009,      0.00013
   1433, 0.000272500009, 0.000134999995
   1434, 0.000272500009, 0.000140000004
   1435, 0.000272500009, 0.000144999998
   1436, 0.000272500009, 0.000150000007
   1437, 0.000272500009, 0.000155000002
   1438, 0.000272500009, 0.000159999996
   1439, 0.000272500009, 0.000165000005
   1440, 0.000272500009, 0.000169999999
   1441, 0.000272500009, 0.000174999994
   1442, 0.000272500009, 0.000180000003
   1443, 0.000272500009, 0.000184999997
   1444, 0.000272500009, 0.000190000006
   1445, 0.000272500009, 0.000195000001
   1446, 0.000270999997, 4.99999987e-06
   1447, 0.000270999997, 9.99999975e-06
   1448, 0.000270999997, 1.49999996e-05
   1449, 0.000270999997, 1.99999995e-05
   1450, 0.000270999997, 2.49999994e-05
   1451, 0.000270999997, 2.99999992e-05
   1452, 0.000270999997, 3.50000009e-05
   1453, 0.000270999997, 3.9999999e-05
   1454, 0.000270999997, 4.50000007e-05
   1455, 0.000270999997, 4.99999987e-05
   1456, 0.000270999997, 5.50000004e-05
   1457, 0.000270999997, 5.99999985e-05
   1458, 0.000270999997, 6.50000002e-05
   1459, 0.000270999997, 7.00000019e-05
   1460, 0.000270999997, 7.50000036e-05
   1461, 0.000270999997, 7.9999998e-05
   1462, 0.000270999997, 8.49999997e-05
   1463, 0.000270999997, 9.00000014e-05
   1464, 0.000270999997, 9.50000031e-05
   1465, 0.000270999997, 9.99999975e-05
   1466, 0.000270999997, 0.000104999999
   1467, 0.000270999997, 0.000110000001
   1468, 0.000270999997, 0.000115000003
   1469, 0.000270999997, 0.000119999997
   1470, 0.000270999997, 0.000125000006
   1471, 0.000270999997,      0.00013
   1472, 0.000270999997, 0.000134999995
   1473, 0.000270999997, 0.000140000004
   1474, 0.000270999997, 0.000144999998
   1475, 0.000270999997, 0.000150000007
   1476, 0.000270999997, 0.000155000002
   1477, 0.000270999997, 0.000159999996
   1478, 0.000270999997, 0.000165000005
   1479, 0.000270999997, 0.000169999999
   1480, 0.000270999997, 0.000174999994
   1481, 0.000270999997, 0.000180000003
   1482, 0.000270999997, 0.000184999997
   1483, 0.000270999997, 0.000190000006
   1484, 0.000270999997, 0.000195000001
   1485, 0.000269499986, 4.99999987e-06
   1486, 0.000269499986, 9.99999975e-06
   1487, 0.000269499986, 1.49999996e-05
   1488, 0.000269499986, 1.99999995e-05
   1489, 0.000269499986, 2.49999994e-05
   1490, 0.000269499986, 2.99999992e-05
   1491, 0.000269499986, 3.50000009e-05
   1492, 0.000269499986, 3.9999999e-05
   1493, 0.000269499986, 4.50000007e-05
   1494, 0.000269499986, 4.99999987e-05
   1495, 0.000269499986, 5.50000004e-05
   1496, 0.000269499986, 5.99999985e-05
   1497, 0.000269499986, 6.50000002e-05
   1498, 0.000269499986, 7.00000019e-05
   1499, 0.000269499986, 7.50000036e-05
   1500, 0.000269499986, 7.9999998e-05
   1501, 0.000269499986, 8.49999997e-05
   1502, 0.000269499986, 9.00000014e-05
   1503, 0.000269499986, 9.50000031e-05
   1504, 0.000269499986, 9.99999975e-05
   1505, 0.000269499986, 0.000104999999
   1506, 0.000269499986, 0.000110000001
   1507, 0.000269499986, 0.000115000003
   1508, 0.000269499986, 0.000119999997
   1509, 0.000269499986, 0.000125000006
   1510, 0.000269499986,      0.00013
   1511, 0.000269499986, 0.000134999995
   1512, 0.000269499986, 0.000140000004
   1513, 0.000269499986, 0.000144999998
   1514, 0.000269499986, 0.000150000007
   1515, 0.000269499986, 0.000155000002
   1516, 0.000269499986, 0.000159999996
   1517, 0.000269499986, 0.000165000005
   1518, 0.000269499986, 0.000169999999
   1519, 0.000269499986, 0.000174999994
   1520, 0.000269499986, 0.000180000003
   1521, 0.000269499986, 0.000184999997
   1522, 0.000269499986, 0.000190000006
   1523, 0.000269499986, 0.000195000001
   1524, 0.000268000003, 4.99999987e-06
   1525, 0.000268000003, 9.99999975e-06
   1526, 0.000268000003, 1.49999996e-05
   1527, 0.000268000003, 1.99999995e-05
   1528, 0.000268000003, 2.49999994e-05
   1529, 0.000268000003, 2.99999992e-05
   1530, 0.000268000003, 3.50000009e-05
   1531, 0.000268000003, 3.9999999e-05
   1532, 0.000268000003, 4.50000007e-05
   1533, 0.000268000003, 4.99999987e-05
   1534, 0.000268000003, 5.50000004e-05
   1535, 0.000268000003, 5.99999985e-05
   1536, 0.000268000003, 6.50000002e-05
   1537, 0.000268000003, 7.00000019e-05
   1538, 0.000268000003, 7.50000036e-05
   1539, 0.000268000003, 7.9999998e-05
   1540, 0.000268000003, 8.49999997e-05
   1541, 0.000268000003, 9.00000014e-05
   1542, 0.000268000003, 9.50000031e-05
   1543, 0.000268000003, 9.99999975e-05
   1544, 0.000268000003, 0.000104999999
   1545, 0.000268000003, 0.000110000001
   1546, 0.000268000003, 0.000115000003
   1547, 0.000268000003, 0.000119999997
   1548, 0.000268000003, 0.000125000006
   1549, 0.000268000003,      0.00013
   1550, 0.000268000003, 0.000134999995
   1551, 0.000268000003, 0.000140000004
   1552, 0.000268000003, 0.000144999998
   1553, 0.000268000003, 0.000150000007
   1554, 0.000268000003, 0.000155000002
   1555, 0.000268000003, 0.000159999996
   1556, 0.000268000003, 0.000165000005
   1557, 0.000268000003, 0.000169999999
   1558, 0.000268000003, 0.000174999994
   1559, 0.000268000003, 0.000180000003
   1560, 0.000268000003, 0.000184999997
   1561, 0.000268000003, 0.000190000006
   1562, 0.000268000003, 0.000195000001
   1563, 0.000266499992, 4.99999987e-06
   1564, 0.000266499992, 9.99999975e-06
   1565, 0.000266499992, 1.49999996e-05
   1566, 0.000266499992, 1.99999995e-05
   1567, 0.000266499992, 2.49999994e-05
   1568, 0.000266499992, 2.99999992e-05
   1569, 0.000266499992, 3.50000009e-05
   1570, 0.000266499992, 3.9999999e-05
   1571, 0.000266499992, 4.50000007e-05
   1572, 0.000266499992, 4.99999987e-05
   1573, 0.000266499992, 5.50000004e-05
   1574, 0.000266499992, 5.99999985e-05
   1575, 0.000266499992, 6.50000002e-05
   1576, 0.000266499992, 7.00000019e-05
   1577, 0.000266499992, 7.50000036e-05
   1578, 0.000266499992, 7.9999998e-05
   1579, 0.000266499992, 8.49999997e-05
   1580, 0.000266499992, 9.00000014e-05
   1581, 0.000266499992, 9.50000031e-05
   1582, 0.000266499992, 9.99999975e-05
   1583, 0.000266499992, 0.000104999999
   1584, 0.000266499992, 0.000110000001
   1585, 0.000266499992, 0.000115000003
   1586, 0.000266499992, 0.000119999997
   1587, 0.000266499992, 0.000125000006
   1588, 0.000266499992,      0.00013
   1589, 0.000266499992, 0.000134999995
   1590, 0.000266499992, 0.000140000004
   1591, 0.000266499992, 0.000144999998
   1592, 0.000266499992, 0.000150000007
   1593, 0.000266499992, 0.000155000002
   1594, 0.000266499992, 0.000159999996
   1595, 0.000266499992, 0.000165000005
   1596, 0.000266499992, 0.000169999999
   1597, 0.000266499992, 0.000174999994
   1598, 0.000266499992, 0.000180000003
   1599, 0.000266499992, 0.000184999997
   1600, 0.000266499992, 0.000190000006
   1601, 0.000266499992, 0.000195000001
   1602, 0.00026500001, 4.99999987e-06
   1603, 0.00026500001, 9.99999975e-06
   1604, 0.00026500001, 1.49999996e-05
   1605, 0.00026500001, 1.99999995e-05
   1606, 0.00026500001, 2.49999994e-05
   1607, 0.00026500001, 2.99999992e-05
   1608, 0.00026500001, 3.50000009e-05
   1609, 0.00026500001, 3.9999999e-05
   1610, 0.00026500001, 4.50000007e-05
   1611, 0.00026500001, 4.99999987e-05
   1612, 0.00026500001, 5.50000004e-05
   1613, 0.00026500001, 5.99999985e-05
   1614, 0.00026500001, 6.50000002e-05
   1615, 0.00026500001, 7.00000019e-05
   1616, 0.00026500001, 7.50000036e-05
   1617, 0.00026500001, 7.9999998e-05
   1618, 0.00026500001, 8.49999997e-05
   1619, 0.00026500001, 9.00000014e-05
   1620, 0.00026500001, 9.50000031e-05
   1621, 0.00026500001, 9.99999975e-05
   1622, 0.00026500001, 0.000104999999
   1623, 0.00026500001, 0.000110000001
   1624, 0.00026500001, 0.000115000003
   1625, 0.00026500001, 0.000119999997
   1626, 0.00026500001, 0.000125000006
   1627, 0.00026500001,      0.00013
   1628, 0.00026500001, 0.000134999995
   1629, 0.00026500001, 0.000140000004
   1630, 0.00026500001, 0.000144999998
   1631, 0.00026500001, 0.000150000007
   1632, 0.00026500001, 0.000155000002
   1633, 0.00026500001, 0.000159999996
   1634, 0.00026500001, 0.000165000005
   1635, 0.00026500001, 0.000169999999
   1636, 0.00026500001, 0.000174999994
   1637, 0.00026500001, 0.000180000003
   1638, 0.00026500001, 0.000184999997
   1639, 0.00026500001, 0.000190000006
   1640, 0.00026500001, 0.000195000001
   1641, 0.000263499998, 4.99999987e-06
   1642, 0.000263499998, 9.99999975e-06
   1643, 0.000263499998, 1.49999996e-05
   1644, 0.000263499998, 1.99999995e-05
   1645, 0.000263499998, 2.49999994e-05
   1646, 0.000263499998, 2.99999992e-05
   1647, 0.000263499998, 3.50000009e-05
   1648, 0.000263499998, 3.9999999e-05
   1649, 0.000263499998, 4.50000007e-05
   1650, 0.000263499998, 4.99999987e-05
   1651, 0.000263499998, 5.50000004e-05
   1652, 0.000263499998, 5.99999985e-05
   1653, 0.000263499998, 6.50000002e-05
   1654, 0.000263499998, 7.00000019e-05
   1655, 0.000263499998, 7.50000036e-05
   1656, 0.000263499998, 7.9999998e-05
   1657, 0.000263499998, 8.49999997e-05
   1658, 0.000263499998, 9.00000014e-05
   1659, 0.000263499998, 9.50000031e-05
   1660, 0.000263499998, 9.99999975e-05
   1661, 0.000263499998, 0.000104999999
   1662, 0.000263499998, 0.000110000001
   1663, 0.000263499998, 0.000115000003
   1664, 0.000263499998, 0.000119999997
   1665, 0.000263499998, 0.000125000006
   1666, 0.000263499998,      0.00013
   1667, 0.000263499998, 0.000134999995
   1668, 0.000263499998, 0.000140000004
   1669, 0.000263499998, 0.000144999998
   1670, 0.000263499998, 0.000150000007
   1671, 0.000263499998, 0.000155000002
   1672, 0.000263499998, 0.000159999996
   1673, 0.000263499998, 0.000165000005
   1674, 0.000263499998, 0.000169999999
   1675, 0.000263499998, 0.000174999994
   1676, 0.000263499998, 0.000180000003
   1677, 0.000263499998, 0.000184999997
   1678, 0.000263499998, 0.000190000006
   1679, 0.000263499998, 0.000195000001
   1680, 0.000261999987, 4.99999987e-06
   1681, 0.000261999987, 9.99999975e-06
   1682, 0.000261999987, 1.49999996e-05
   1683, 0.000261999987, 1.99999995e-05
   1684, 0.000261999987, 2.49999994e-05
   1685, 0.000261999987, 2.99999992e-05
   1686, 0.000261999987, 3.50000009e-05
   1687, 0.000261999987, 3.9999999e-05
   1688, 0.000261999987, 4.50000007e-05
   1689, 0.000261999987, 4.99999987e-05
   1690, 0.000261999987, 5.50000004e-05
   1691, 0.000261999987, 5.99999985e-05
   1692, 0.000261999987, 6.50000002e-05
   1693, 0.000261999987, 7.00000019e-05
   1694, 0.000261999987, 7.50000036e-05
   1695, 0.000261999987, 7.9999998e-05
   1696, 0.000261999987, 8.49999997e-05
   1697, 0.000261999987, 9.00000014e-05
   1698, 0.000261999987, 9.50000031e-05
   1699, 0.000261999987, 9.99999975e-05
   1700, 0.000261999987, 0.000104999999
   1701, 0.000261999987, 0.000110000001
   1702, 0.000261999987, 0.000115000003
   1703, 0.000261999987, 0.000119999997
   1704, 0.000261999987, 0.000125000006
   1705, 0.000261999987,      0.00013
   1706, 0.000261999987, 0.000134999995
   1707, 0.000261999987, 0.000140000004
   1708, 0.000261999987, 0.000144999998
   1709, 0.000261999987, 0.000150000007
   1710, 0.000261999987, 0.000155000002
   1711, 0.000261999987, 0.000159999996
   1712, 0.000261999987, 0.000165000005
   1713, 0.000261999987, 0.000169999999
   1714, 0.000261999987, 0.000174999994
   1715, 0.000261999987, 0.000180000003
   1716, 0.000261999987, 0.000184999997
   1717, 0.000261999987, 0.000190000006
   1718, 0.000261999987, 0.000195000001
   1719, 0.000260500005, 4.99999987e-06
   1720, 0.000260500005, 9.99999975e-06
   1721, 0.000260500005, 1.49999996e-05
   1722, 0.000260500005, 1.99999995e-05
   1723, 0.000260500005, 2.49999994e-05
   1724, 0.000260500005, 2.99999992e-05
   1725, 0.000260500005, 3.50000009e-05
   1726, 0.000260500005, 3.9999999e-05
   1727, 0.000260500005, 4.50000007e-05
   1728, 0.000260500005, 4.99999987e-05
   1729, 0.000260500005, 5.50000004e-05
   1730, 0.000260500005, 5.99999985e-05
   1731, 0.000260500005, 6.50000002e-05
   1732, 0.000260500005, 7.00000019e-05
   1733, 0.000260500005, 7.50000036e-05
   1734, 0.000260500005, 7.9999998e-05
   1735, 0.000260500005, 8.49999997e-05
   1736, 0.000260500005, 9.00000014e-05
   1737, 0.000260500005, 9.50000031e-05
   1738, 0.000260500005, 9.99999975e-05
   1739, 0.000260500005, 0.000104999999
   1740, 0.000260500005, 0.000110000001
   1741, 0.000260500005, 0.000115000003
   1742, 0.000260500005, 0.000119999997
   1743, 0.000260500005, 0.000125000006
   1744, 0.000260500005,      0.00013
   1745, 0.000260500005, 0.000134999995
   1746, 0.000260500005, 0.000140000004
   1747, 0.000260500005, 0.000144999998
   1748, 0.000260500005, 0.000150000007
   1749, 0.000260500005, 0.000155000002
   1750, 0.000260500005, 0.000159999996
   1751, 0.000260500005, 0.000165000005
   1752, 0.000260500005, 0.000169999999
   1753, 0.000260500005, 0.000174999994
   1754, 0.000260500005, 0.000180000003
   1755, 0.000260500005, 0.000184999997
   1756, 0.000260500005, 0.000190000006
   1757, 0.000260500005, 0.000195000001
   1758, 0.000258999993, 4.99999987e-06
   1759, 0.000258999993, 9.99999975e-06
   1760, 0.000258999993, 1.49999996e-05
   1761, 0.000258999993, 1.99999995e-05
   1762, 0.000258999993, 2.49999994e-05
   1763, 0.000258999993, 2.99999992e-05
   1764, 0.000258999993, 3.50000009e-05
   1765, 0.000258999993, 3.9999999e-05
   1766, 0.000258999993, 4.50000007e-05
   1767, 0.000258999993, 4.99999987e-05
   1768, 0.000258999993, 5.50000004e-05
   1769, 0.000258999993, 5.99999985e-05
   1770, 0.000258999993, 6.50000002e-05
   1771, 0.000258999993, 7.00000019e-05
   1772, 0.000258999993, 7.50000036e-05
   1773, 0.000258999993, 7.9999998e-05
   1774, 0.000258999993, 8.49999997e-05
   1775, 0.000258999993, 9.00000014e-05
   1776, 0.000258999993, 9.50000031e-05
   1777, 0.000258999993, 9.99999975e-05
   1778, 0.000258999993, 0.000104999999
   1779, 0.000258999993, 0.000110000001
   1780, 0.000258999993, 0.000115000003
   1781, 0.000258999993, 0.000119999997
   1782, 0.000258999993, 0.000125000006
   1783, 0.000258999993,      0.00013
   1784, 0.000258999993, 0.000134999995
   1785, 0.000258999993, 0.000140000004
   1786, 0.000258999993, 0.000144999998
   1787, 0.000258999993, 0.000150000007
   1788, 0.000258999993, 0.000155000002
   1789, 0.000258999993, 0.000159999996
   1790, 0.000258999993, 0.000165000005
   1791, 0.000258999993, 0.000169999999
   1792, 0.000258999993, 0.000174999994
   1793, 0.000258999993, 0.000180000003
   1794, 0.000258999993, 0.000184999997
   1795, 0.000258999993, 0.000190000006
   1796, 0.000258999993, 0.000195000001
   1797, 0.000257500011, 4.99999987e-06
   1798, 0.000257500011, 9.99999975e-06
   1799, 0.000257500011, 1.49999996e-05
   1800, 0.000257500011, 1.99999995e-05
   1801, 0.000257500011, 2.49999994e-05
   1802, 0.000257500011, 2.99999992e-05
   1803, 0.000257500011, 3.50000009e-05
   1804, 0.000257500011, 3.9999999e-05
   1805, 0.000257500011, 4.50000007e-05
   1806, 0.000257500011, 4.99999987e-05
   1807, 0.000257500011, 5.50000004e-05
   1808, 0.000257500011, 5.99999985e-05
   1809, 0.000257500011, 6.50000002e-05
   1810, 0.000257500011, 7.00000019e-05
   1811, 0.000257500011, 7.50000036e-05
   1812, 0.000257500011, 7.9999998e-05
   1813, 0.000257500011, 8.49999997e-05
   1814, 0.000257500011, 9.00000014e-05
   1815, 0.000257500011, 9.50000031e-05
   1816, 0.000257500011, 9.99999975e-05
   1817, 0.000257500011, 0.000104999999
   1818, 0.000257500011, 0.000110000001
   1819, 0.000257500011, 0.000115000003
   1820, 0.000257500011, 0.000119999997
   1821, 0.000257500011, 0.000125000006
   1822, 0.000257500011,      0.00013
   1823, 0.000257500011, 0.000134999995
   1824, 0.000257500011, 0.000140000004
   1825, 0.000257500011, 0.000144999998
   1826, 0.000257500011, 0.000150000007
   1827, 0.000257500011, 0.000155000002
   1828, 0.000257500011, 0.000159999996
   1829, 0.000257500011, 0.000165000005
   1830, 0.000257500011, 0.000169999999
   1831, 0.000257500011, 0.000174999994
   1832, 0.000257500011, 0.000180000003
   1833, 0.000257500011, 0.000184999997
   1834, 0.000257500011, 0.000190000006
   1835, 0.000257500011, 0.000195000001
   1836, 0.000255999999, 4.99999987e-06
   1837, 0.000255999999, 9.99999975e-06
   1838, 0.000255999999, 1.49999996e-05
   1839, 0.000255999999, 1.99999995e-05
   1840, 0.000255999999, 2.49999994e-05
   1841, 0.000255999999, 2.99999992e-05
   1842, 0.000255999999, 3.50000009e-05
   1843, 0.000255999999, 3.9999999e-05
   1844, 0.000255999999, 4.50000007e-05
   1845, 0.000255999999, 4.99999987e-05
   1846, 0.000255999999, 5.50000004e-05
   1847, 0.000255999999, 5.99999985e-05
   1848, 0.000255999999, 6.50000002e-05
   1849, 0.000255999999, 7.00000019e-05
   1850, 0.000255999999, 7.50000036e-05
   1851, 0.000255999999, 7.9999998e-05
   1852, 0.000255999999, 8.49999997e-05
   1853, 0.000255999999, 9.00000014e-05
   1854, 0.000255999999, 9.50000031e-05
   1855, 0.000255999999, 9.99999975e-05
   1856, 0.000255999999, 0.000104999999
   1857, 0.000255999999, 0.000110000001
   1858, 0.000255999999, 0.000115000003
   1859, 0.000255999999, 0.000119999997
   1860, 0.000255999999, 0.000125000006
   1861, 0.000255999999,      0.00013
   1862, 0.000255999999, 0.000134999995
   1863, 0.000255999999, 0.000140000004
   1864, 0.000255999999, 0.000144999998
   1865, 0.000255999999, 0.000150000007
   1866, 0.000255999999, 0.000155000002
   1867, 0.000255999999, 0.000159999996
   1868, 0.000255999999, 0.000165000005
   1869, 0.000255999999, 0.000169999999
   1870, 0.000255999999, 0.000174999994
   1871, 0.000255999999, 0.000180000003
   1872, 0.000255999999, 0.000184999997
   1873, 0.000255999999, 0.000190000006
   1874, 0.000255999999, 0.000195000001
   1875, 0.000254499988, 4.99999987e-06
   1876, 0.000254499988, 9.99999975e-06
   1877, 0.000254499988, 1.49999996e-05
   1878, 0.000254499988, 1.99999995e-05
   1879, 0.000254499988, 2.49999994e-05
   1880, 0.000254499988, 2.99999992e-05
   1881, 0.000254499988, 3.50000009e-05
   1882, 0.000254499988, 3.9999999e-05
   1883, 0.000254499988, 4.50000007e-05
   1884, 0.000254499988, 4.99999987e-05
   1885, 0.000254499988, 5.50000004e-05
   1886, 0.000254499988, 5.99999985e-05
   1887, 0.000254499988, 6.50000002e-05
   1888, 0.000254499988, 7.00000019e-05
   1889, 0.000254499988, 7.50000036e-05
   1890, 0.000254499988, 7.9999998e-05
   1891, 0.000254499988, 8.49999997e-05
   1892, 0.000254499988, 9.00000014e-05
   1893, 0.000254499988, 9.50000031e-05
   1894, 0.000254499988, 9.99999975e-05
   1895, 0.000254499988, 0.000104999999
   1896, 0.000254499988, 0.000110000001
   1897, 0.000254499988, 0.000115000003
   1898, 0.000254499988, 0.000119999997
   1899, 0.000254499988, 0.000125000006
   1900, 0.000254499988,      0.00013
   1901, 0.000254499988, 0.000134999995
   1902, 0.000254499988, 0.000140000004
   1903, 0.000254499988, 0.000144999998
   1904, 0.000254499988, 0.000150000007
   1905, 0.000254499988, 0.000155000002
   1906, 0.000254499988, 0.000159999996
   1907, 0.000254499988, 0.000165000005
   1908, 0.000254499988, 0.000169999999
   1909, 0.000254499988, 0.000174999994
   1910, 0.000254499988, 0.000180000003
   1911, 0.000254499988, 0.000184999997
   1912, 0.000254499988, 0.000190000006
   1913, 0.000254499988, 0.000195000001
   1914, 0.000253000006, 4.99999987e-06
   1915, 0.000253000006, 9.99999975e-06
   1916, 0.000253000006, 1.49999996e-05
   1917, 0.000253000006, 1.99999995e-05
   1918, 0.000253000006, 2.49999994e-05
   1919, 0.000253000006, 2.99999992e-05
   1920, 0.000253000006, 3.50000009e-05
   1921, 0.000253000006, 3.9999999e-05
   1922, 0.000253000006, 4.50000007e-05
   1923, 0.000253000006, 4.99999987e-05
   1924, 0.000253000006, 5.50000004e-05
   1925, 0.000253000006, 5.99999985e-05
   1926, 0.000253000006, 6.50000002e-05
   1927, 0.000253000006, 7.00000019e-05
   1928, 0.000253000006, 7.50000036e-05
   1929, 0.000253000006, 7.9999998e-05
   1930, 0.000253000006, 8.49999997e-05
   1931, 0.000253000006, 9.00000014e-05
   1932, 0.000253000006, 9.50000031e-05
   1933, 0.000253000006, 9.99999975e-05
   1934, 0.000253000006, 0.000104999999
   1935, 0.000253000006, 0.000110000001
   1936, 0.000253000006, 0.000115000003
   1937, 0.000253000006, 0.000119999997
   1938, 0.000253000006, 0.000125000006
   1939, 0.000253000006,      0.00013
   1940, 0.000253000006, 0.000134999995
   1941, 0.000253000006, 0.000140000004
   1942, 0.000253000006, 0.000144999998
   1943, 0.000253000006, 0.000150000007
   1944, 0.000253000006, 0.000155000002
   1945, 0.000253000006, 0.000159999996
   1946, 0.000253000006, 0.000165000005
   1947, 0.000253000006, 0.000169999999
   1948, 0.000253000006, 0.000174999994
   1949, 0.000253000006, 0.000180000003
   1950, 0.000253000006, 0.000184999997
   1951, 0.000253000006, 0.000190000006
   1952, 0.000253000006, 0.000195000001
   1953, 0.000251499994, 4.99999987e-06
   1954, 0.000251499994, 9.99999975e-06
   1955, 0.000251499994, 1.49999996e-05
   1956, 0.000251499994, 1.99999995e-05
   1957, 0.000251499994, 2.49999994e-05
   1958, 0.000251499994, 2.99999992e-05
   1959, 0.000251499994, 3.50000009e-05
   1960, 0.000251499994, 3.9999999e-05
   1961, 0.000251499994, 4.50000007e-05
   1962, 0.000251499994, 4.99999987e-05
   1963, 0.000251499994, 5.50000004e-05
   1964, 0.000251499994, 5.99999985e-05
   1965, 0.000251499994, 6.50000002e-05
   1966, 0.000251499994, 7.00000019e-05
   1967, 0.000251499994, 7.50000036e-05
   1968, 0.000251499994, 7.9999998e-05
   1969, 0.000251499994, 8.49999997e-05
   1970, 0.000251499994, 9.00000014e-05
   1971, 0.000251499994, 9.50000031e-05
   1972, 0.000251499994, 9.99999975e-05
   1973, 0.000251499994, 0.000104999999
   1974, 0.000251499994, 0.000110000001
   1975, 0.000251499994, 0.000115000003
   1976, 0.000251499994, 0.000119999997
   1977, 0.000251499994, 0.000125000006
   1978, 0.000251499994,      0.00013
   1979, 0.000251499994, 0.000134999995
   1980, 0.000251499994, 0.000140000004
   1981, 0.000251499994, 0.000144999998
   1982, 0.000251499994, 0.000150000007
   1983, 0.000251499994, 0.000155000002
   1984, 0.000251499994, 0.000159999996
   1985, 0.000251499994, 0.000165000005
   1986, 0.000251499994, 0.000169999999
   1987, 0.000251499994, 0.000174999994
   1988, 0.000251499994, 0.000180000003
   1989, 0.000251499994, 0.000184999997
   1990, 0.000251499994, 0.000190000006
   1991, 0.000251499994, 0.000195000001
   1992, 0.000250000012, 4.99999987e-06
   1993, 0.000250000012, 9.99999975e-06
   1994, 0.000250000012, 1.49999996e-05
   1995, 0.000250000012, 1.99999995e-05
   1996, 0.000250000012, 2.49999994e-05
   1997, 0.000250000012, 2.99999992e-05
   1998, 0.000250000012, 3.50000009e-05
   1999, 0.000250000012, 3.9999999e-05
   2000, 0.000250000012, 4.50000007e-05
   2001, 0.000250000012, 4.99999987e-05
   2002, 0.000250000012, 5.50000004e-05
   2003, 0.000250000012, 5.99999985e-05
   2004, 0.000250000012, 6.50000002e-05
   2005, 0.000250000012, 7.00000019e-05
   2006, 0.000250000012, 7.50000036e-05
   2007, 0.000250000012, 7.9999998e-05
   2008, 0.000250000012, 8.49999997e-05
   2009, 0.000250000012, 9.00000014e-05
   2010, 0.000250000012, 9.50000031e-05
   2011, 0.000250000012, 9.99999975e-05
   2012, 0.000250000012, 0.000104999999
   2013, 0.000250000012, 0.000110000001
   2014, 0.000250000012, 0.000115000003
   2015, 0.000250000012, 0.000119999997
   2016, 0.000250000012, 0.000125000006
   2017, 0.000250000012,      0.00013
   2018, 0.000250000012, 0.000134999995
   2019, 0.000250000012, 0.000140000004
   2020, 0.000250000012, 0.000144999998
   2021, 0.000250000012, 0.000150000007
   2022, 0.000250000012, 0.000155000002
   2023, 0.000250000012, 0.000159999996
   2024, 0.000250000012, 0.000165000005
   2025, 0.000250000012, 0.000169999999
   2026, 0.000250000012, 0.000174999994
   2027, 0.000250000012, 0.000180000003
   2028, 0.000250000012, 0.000184999997
   2029, 0.000250000012, 0.000190000006
   2030, 0.000250000012, 0.000195000001
   2031,    0.0002485, 4.99999987e-06
   2032,    0.0002485, 9.99999975e-06
   2033,    0.0002485, 1.49999996e-05
   2034,    0.0002485, 1.99999995e-05
   2035,    0.0002485, 2.49999994e-05
   2036,    0.0002485, 2.99999992e-05
   2037,    0.0002485, 3.50000009e-05
   2038,    0.0002485, 3.9999999e-05
   2039,    0.0002485, 4.50000007e-05
   2040,    0.0002485, 4.99999987e-05
   2041,    0.0002485, 5.50000004e-05
   2042,    0.0002485, 5.99999985e-05
   2043,    0.0002485, 6.50000002e-05
   2044,    0.0002485, 7.00000019e-05
   2045,    0.0002485, 7.50000036e-05
   2046,    0.0002485, 7.9999998e-05
   2047,    0.0002485, 8.49999997e-05
   2048,    0.0002485, 9.00000014e-05
   2049,    0.0002485, 9.50000031e-05
   2050,    0.0002485, 9.99999975e-05
   2051,    0.0002485, 0.000104999999
   2052,    0.0002485, 0.000110000001
   2053,    0.0002485, 0.000115000003
   2054,    0.0002485, 0.000119999997
   2055,    0.0002485, 0.000125000006
   2056,    0.0002485,      0.00013
   2057,    0.0002485, 0.000134999995
   2058,    0.0002485, 0.000140000004
   2059,    0.0002485, 0.000144999998
   2060,    0.0002485, 0.000150000007
   2061,    0.0002485, 0.000155000002
   2062,    0.0002485, 0.000159999996
   2063,    0.0002485, 0.000165000005
   2064,    0.0002485, 0.000169999999
   2065,    0.0002485, 0.000174999994
   2066,    0.0002485, 0.000180000003
   2067,    0.0002485, 0.000184999997
   2068,    0.0002485, 0.000190000006
   2069,    0.0002485, 0.000195000001
   2070, 0.000246999989, 4.99999987e-06
   2071, 0.000246999989, 9.99999975e-06
   2072, 0.000246999989, 1.49999996e-05
   2073, 0.000246999989, 1.99999995e-05
   2074, 0.000246999989, 2.49999994e-05
   2075, 0.000246999989, 2.99999992e-05
   2076, 0.000246999989, 3.50000009e-05
   2077, 0.000246999989, 3.9999999e-05
   2078, 0.000246999989, 4.50000007e-05
   2079, 0.000246999989, 4.99999987e-05
   2080, 0.000246999989, 5.50000004e-05
   2081, 0.000246999989, 5.99999985e-05
   2082, 0.000246999989, 6.50000002e-05
   2083, 0.000246999989, 7.00000019e-05
   2084, 0.000246999989, 7.50000036e-05
   2085, 0.000246999989, 7.9999998e-05
   2086, 0.000246999989, 8.49999997e-05
   2087, 0.000246999989, 9.00000014e-05
   2088, 0.000246999989, 9.50000031e-05
   2089, 0.000246999989, 9.99999975e-05
   2090, 0.000246999989, 0.000104999999
   2091, 0.000246999989, 0.000110000001
   2092, 0.000246999989, 0.000115000003
   2093, 0.000246999989, 0.000119999997
   2094, 0.000246999989, 0.000125000006
   2095, 0.000246999989,      0.00013
   2096, 0.000246999989, 0.000134999995
   2097, 0.000246999989, 0.000140000004
   2098, 0.000246999989, 0.000144999998
   2099, 0.000246999989, 0.000150000007
   2100, 0.000246999989, 0.000155000002
   2101, 0.000246999989, 0.000159999996
   2102, 0.000246999989, 0.000165000005
   2103, 0.000246999989, 0.000169999999
   2104, 0.000246999989, 0.000174999994
   2105, 0.000246999989, 0.000180000003
   2106, 0.000246999989, 0.000184999997
   2107, 0.000246999989, 0.000190000006
   2108, 0.000246999989, 0.000195000001
   2109, 0.000245500007, 4.99999987e-06
   2110, 0.000245500007, 9.99999975e-06
   2111, 0.000245500007, 1.49999996e-05
   2112, 0.000245500007, 1.99999995e-05
   2113, 0.000245500007, 2.49999994e-05
   2114, 0.000245500007, 2.99999992e-05
   2115, 0.000245500007, 3.50000009e-05
   2116, 0.000245500007, 3.9999999e-05
   2117, 0.000245500007, 4.50000007e-05
   2118, 0.000245500007, 4.99999987e-05
   2119, 0.000245500007, 5.50000004e-05
   2120, 0.000245500007, 5.99999985e-05
   2121, 0.000245500007, 6.50000002e-05
   2122, 0.000245500007, 7.00000019e-05
   2123, 0.000245500007, 7.50000036e-05
   2124, 0.000245500007, 7.9999998e-05
   2125, 0.000245500007, 8.49999997e-05
   2126, 0.000245500007, 9.00000014e-05
   2127, 0.000245500007, 9.50000031e-05
   2128, 0.000245500007, 9.99999975e-05
   2129, 0.000245500007, 0.000104999999
   2130, 0.000245500007, 0.000110000001
   2131, 0.000245500007, 0.000115000003
   2132, 0.000245500007, 0.000119999997
   2133, 0.000245500007, 0.000125000006
   2134, 0.000245500007,      0.00013
   2135, 0.000245500007, 0.000134999995
   2136, 0.000245500007, 0.000140000004
   2137, 0.000245500007, 0.000144999998
   2138, 0.000245500007, 0.000150000007
   2139, 0.000245500007, 0.000155000002
   2140, 0.000245500007, 0.000159999996
   2141, 0.000245500007, 0.000165000005
   2142, 0.000245500007, 0.000169999999
   2143, 0.000245500007, 0.000174999994
   2144, 0.000245500007, 0.000180000003
   2145, 0.000245500007, 0.000184999997
   2146, 0.000245500007, 0.000190000006
   2147, 0.000245500007, 0.000195000001
   2148, 0.000243999995, 4.99999987e-06
   2149, 0.000243999995, 9.99999975e-06
   2150, 0.000243999995, 1.49999996e-05
   2151, 0.000243999995, 1.99999995e-05
   2152, 0.000243999995, 2.49999994e-05
   2153, 0.000243999995, 2.99999992e-05
   2154, 0.000243999995, 3.50000009e-05
   2155, 0.000243999995, 3.9999999e-05
   2156, 0.000243999995, 4.50000007e-05
   2157, 0.000243999995, 4.99999987e-05
   2158, 0.000243999995, 5.50000004e-05
   2159, 0.000243999995, 5.99999985e-05
   2160, 0.000243999995, 6.50000002e-05
   2161, 0.000243999995, 7.00000019e-05
   2162, 0.000243999995, 7.50000036e-05
   2163, 0.000243999995, 7.9999998e-05
   2164, 0.000243999995, 8.49999997e-05
   2165, 0.000243999995, 9.00000014e-05
   2166, 0.000243999995, 9.50000031e-05
   2167, 0.000243999995, 9.99999975e-05
   2168, 0.000243999995, 0.000104999999
   2169, 0.000243999995, 0.000110000001
   2170, 0.000243999995, 0.000115000003
   2171, 0.000243999995, 0.000119999997
   2172, 0.000243999995, 0.000125000006
   2173, 0.000243999995,      0.00013
   2174, 0.000243999995, 0.000134999995
   2175, 0.000243999995, 0.000140000004
   2176, 0.000243999995, 0.000144999998
   2177, 0.000243999995, 0.000150000007
   2178, 0.000243999995, 0.000155000002
   2179, 0.000243999995, 0.000159999996
   2180, 0.000243999995, 0.000165000005
   2181, 0.000243999995, 0.000169999999
   2182, 0.000243999995, 0.000174999994
   2183, 0.000243999995, 0.000180000003
   2184, 0.000243999995, 0.000184999997
   2185, 0.000243999995, 0.000190000006
   2186, 0.000243999995, 0.000195000001
   2187, 0.000242499998, 4.99999987e-06
   2188, 0.000242499998, 9.99999975e-06
   2189, 0.000242499998, 1.49999996e-05
   2190, 0.000242499998, 1.99999995e-05
   2191, 0.000242499998, 2.49999994e-05
   2192, 0.000242499998, 2.99999992e-05
   2193, 0.000242499998, 3.50000009e-05
   2194, 0.000242499998, 3.9999999e-05
   2195, 0.000242499998, 4.50000007e-05
   2196, 0.000242499998, 4.99999987e-05
   2197, 0.000242499998, 5.50000004e-05
   2198, 0.000242499998, 5.99999985e-05
   2199, 0.000242499998, 6.50000002e-05
   2200, 0.000242499998, 7.00000019e-05
   2201, 0.000242499998, 7.50000036e-05
   2202, 0.000242499998, 7.9999998e-05
   2203, 0.000242499998, 8.49999997e-05
   2204, 0.000242499998, 9.00000014e-05
   2205, 0.000242499998, 9.50000031e-05
   2206, 0.000242499998, 9.99999975e-05
   2207, 0.000242499998, 0.000104999999
   2208, 0.000242499998, 0.000110000001
   2209, 0.000242499998, 0.000115000003
   2210, 0.000242499998, 0.000119999997
   2211, 0.000242499998, 0.000125000006
   2212, 0.000242499998,      0.00013
   2213, 0.000242499998, 0.000134999995
   2214, 0.000242499998, 0.000140000004
   2215, 0.000242499998, 0.000144999998
   2216, 0.000242499998, 0.000150000007
   2217, 0.000242499998, 0.000155000002
   2218, 0.000242499998, 0.000159999996
   2219, 0.000242499998, 0.000165000005
   2220, 0.000242499998, 0.000169999999
   2221, 0.000242499998, 0.000174999994
   2222, 0.000242499998, 0.000180000003
   2223, 0.000242499998, 0.000184999997
   2224, 0.000242499998, 0.000190000006
   2225, 0.000242499998, 0.000195000001
   2226, 0.000241000002, 4.99999987e-06
   2227, 0.000241000002, 9.99999975e-06
   2228, 0.000241000002, 1.49999996e-05
   2229, 0.000241000002, 1.99999995e-05
   2230, 0.000241000002, 2.49999994e-05
   2231, 0.000241000002, 2.99999992e-05
   2232, 0.000241000002, 3.50000009e-05
   2233, 0.000241000002, 3.9999999e-05
   2234, 0.000241000002, 4.50000007e-05
   2235, 0.000241000002, 4.99999987e-05
   2236, 0.000241000002, 5.50000004e-05
   2237, 0.000241000002, 5.99999985e-05
   2238, 0.000241000002, 6.50000002e-05
   2239, 0.000241000002, 7.00000019e-05
   2240, 0.000241000002, 7.50000036e-05
   2241, 0.000241000002, 7.9999998e-05
   2242, 0.000241000002, 8.49999997e-05
   2243, 0.000241000002, 9.00000014e-05
   2244, 0.000241000002, 9.50000031e-05
   2245, 0.000241000002, 9.99999975e-05
   2246, 0.000241000002, 0.000104999999
   2247, 0.000241000002, 0.000110000001
   2248, 0.000241000002, 0.000115000003
   2249, 0.000241000002, 0.000119999997
   2250, 0.000241000002, 0.000125000006
   2251, 0.000241000002,      0.00013
   2252, 0.000241000002, 0.000134999995
   2253, 0.000241000002, 0.000140000004
   2254, 0.000241000002, 0.000144999998
   2255, 0.000241000002, 0.000150000007
   2256, 0.000241000002, 0.000155000002
   2257, 0.000241000002, 0.000159999996
   2258, 0.000241000002, 0.000165000005
   2259, 0.000241000002, 0.000169999999
   2260, 0.000241000002, 0.000174999994
   2261, 0.000241000002, 0.000180000003
   2262, 0.000241000002, 0.000184999997
   2263, 0.000241000002, 0.000190000006
   2264, 0.000241000002, 0.000195000001
   2265, 0.000239500005, 4.99999987e-06
   2266, 0.000239500005, 9.99999975e-06
   2267, 0.000239500005, 1.49999996e-05
   2268, 0.000239500005, 1.99999995e-05
   2269, 0.000239500005, 2.49999994e-05
   2270, 0.000239500005, 2.99999992e-05
   2271, 0.000239500005, 3.50000009e-05
   2272, 0.000239500005, 3.9999999e-05
   2273, 0.000239500005, 4.50000007e-05
   2274, 0.000239500005, 4.99999987e-05
   2275, 0.000239500005, 5.50000004e-05
   2276, 0.000239500005, 5.99999985e-05
   2277, 0.000239500005, 6.50000002e-05
   2278, 0.000239500005, 7.00000019e-05
   2279, 0.000239500005, 7.50000036e-05
   2280, 0.000239500005, 7.9999998e-05
   2281, 0.000239500005, 8.49999997e-05
   2282, 0.000239500005, 9.00000014e-05
   2283, 0.000239500005, 9.50000031e-05
   2284, 0.000239500005, 9.99999975e-05
   2285, 0.000239500005, 0.000104999999
   2286, 0.000239500005, 0.000110000001
   2287, 0.000239500005, 0.000115000003
   2288, 0.000239500005, 0.000119999997
   2289, 0.000239500005, 0.000125000006
   2290, 0.000239500005,      0.00013
   2291, 0.000239500005, 0.000134999995
   2292, 0.000239500005, 0.000140000004
   2293, 0.000239500005, 0.000144999998
   2294, 0.000239500005, 0.000150000007
   2295, 0.000239500005, 0.000155000002
   2296, 0.000239500005, 0.000159999996
   2297, 0.000239500005, 0.000165000005
   2298, 0.000239500005, 0.000169999999
   2299, 0.000239500005, 0.000174999994
   2300, 0.000239500005, 0.000180000003
   2301, 0.000239500005, 0.000184999997
   2302, 0.000239500005, 0.000190000006
   2303, 0.000239500005, 0.000195000001
   2304, 0.000237999993, 4.99999987e-06
   2305, 0.000237999993, 9.99999975e-06
   2306, 0.000237999993, 1.49999996e-05
   2307, 0.000237999993, 1.99999995e-05
   2308, 0.000237999993, 2.49999994e-05
   2309, 0.000237999993, 2.99999992e-05
   2310, 0.000237999993, 3.50000009e-05
   2311, 0.000237999993, 3.9999999e-05
   2312, 0.000237999993, 4.50000007e-05
   2313, 0.000237999993, 4.99999987e-05
   2314, 0.000237999993, 5.50000004e-05
   2315, 0.000237999993, 5.99999985e-05
   2316, 0.000237999993, 6.50000002e-05
   2317, 0.000237999993, 7.00000019e-05
   2318, 0.000237999993, 7.50000036e-05
   2319, 0.000237999993, 7.9999998e-05
   2320, 0.000237999993, 8.49999997e-05
   2321, 0.000237999993, 9.00000014e-05
   2322, 0.000237999993, 9.50000031e-05
   2323, 0.000237999993, 9.99999975e-05
   2324, 0.000237999993, 0.000104999999
   2325, 0.000237999993, 0.000110000001
   2326, 0.000237999993, 0.000115000003
   2327, 0.000237999993, 0.000119999997
   2328, 0.000237999993, 0.000125000006
   2329, 0.000237999993,      0.00013
   2330, 0.000237999993, 0.000134999995
   2331, 0.000237999993, 0.000140000004
   2332, 0.000237999993, 0.000144999998
   2333, 0.000237999993, 0.000150000007
   2334, 0.000237999993, 0.000155000002
   2335, 0.000237999993, 0.000159999996
   2336, 0.000237999993, 0.000165000005
   2337, 0.000237999993, 0.000169999999
   2338, 0.000237999993, 0.000174999994
   2339, 0.000237999993, 0.000180000003
   2340, 0.000237999993, 0.000184999997
   2341, 0.000237999993, 0.000190000006
   2342, 0.000237999993, 0.000195000001
   2343, 0.000236499996, 4.99999987e-06
   2344, 0.000236499996, 9.99999975e-06
   2345, 0.000236499996, 1.49999996e-05
   2346, 0.000236499996, 1.99999995e-05
   2347, 0.000236499996, 2.49999994e-05
   2348, 0.000236499996, 2.99999992e-05
   2349, 0.000236499996, 3.50000009e-05
   2350, 0.000236499996, 3.9999999e-05
   2351, 0.000236499996, 4.50000007e-05
   2352, 0.000236499996, 4.99999987e-05
   2353, 0.000236499996, 5.50000004e-05
   2354, 0.000236499996, 5.99999985e-05
   2355, 0.000236499996, 6.50000002e-05
   2356, 0.000236499996, 7.00000019e-05
   2357, 0.000236499996, 7.50000036e-05
   2358, 0.000236499996, 7.9999998e-05
   2359, 0.000236499996, 8.49999997e-05
   2360, 0.000236499996, 9.00000014e-05
   2361, 0.000236499996, 9.50000031e-05
   2362, 0.000236499996, 9.99999975e-05
   2363, 0.000236499996, 0.000104999999
   2364, 0.000236499996, 0.000110000001
   2365, 0.000236499996, 0.000115000003
   2366, 0.000236499996, 0.000119999997
   2367, 0.000236499996, 0.000125000006
   2368, 0.000236499996,      0.00013
   2369, 0.000236499996, 0.000134999995
   2370, 0.000236499996, 0.000140000004
   2371, 0.000236499996, 0.000144999998
   2372, 0.000236499996, 0.000150000007
   2373, 0.000236499996, 0.000155000002
   2374, 0.000236499996, 0.000159999996
   2375, 0.000236499996, 0.000165000005
   2376, 0.000236499996, 0.000169999999
   2377, 0.000236499996, 0.000174999994
   2378, 0.000236499996, 0.000180000003
   2379, 0.000236499996, 0.000184999997
   2380, 0.000236499996, 0.000190000006
   2381, 0.000236499996, 0.000195000001
   2382,     0.000235, 4.99999987e-06
   2383,     0.000235, 9.99999975e-06
   2384,     0.000235, 1.49999996e-05
   2385,     0.000235, 1.99999995e-05
   2386,     0.000235, 2.49999994e-05
   2387,     0.000235, 2.99999992e-05
   2388,     0.000235, 3.50000009e-05
   2389,     0.000235, 3.9999999e-05
   2390,     0.000235, 4.50000007e-05
   2391,     0.000235, 4.99999987e-05
   2392,     0.000235, 5.50000004e-05
   2393,     0.000235, 5.99999985e-05
   2394,     0.000235, 6.50000002e-05
   2395,     0.000235, 7.00000019e-05
   2396,     0.000235, 7.50000036e-05
   2397,     0.000235, 7.9999998e-05
   2398,     0.000235, 8.49999997e-05
   2399,     0.000235, 9.00000014e-05
   2400,     0.000235, 9.50000031e-05
   2401,     0.000235, 9.99999975e-05
   2402,     0.000235, 0.000104999999
   2403,     0.000235, 0.000110000001
   2404,     0.000235, 0.000115000003
   2405,     0.000235, 0.000119999997
   2406,     0.000235, 0.000125000006
   2407,     0.000235,      0.00013
   2408,     0.000235, 0.000134999995
   2409,     0.000235, 0.000140000004
   2410,     0.000235, 0.000144999998
   2411,     0.000235, 0.000150000007
   2412,     0.000235, 0.000155000002
   2413,     0.000235, 0.000159999996
   2414,     0.000235, 0.000165000005
   2415,     0.000235, 0.000169999999
   2416,     0.000235, 0.000174999994
   2417,     0.000235, 0.000180000003
   2418,     0.000235, 0.000184999997
   2419,     0.000235, 0.000190000006
   2420,     0.000235, 0.000195000001
   2421, 0.000233500003, 4.99999987e-06
   2422, 0.000233500003, 9.99999975e-06
   2423, 0.000233500003, 1.49999996e-05
   2424, 0.000233500003, 1.99999995e-05
   2425, 0.000233500003, 2.49999994e-05
   2426, 0.000233500003, 2.99999992e-05
   2427, 0.000233500003, 3.50000009e-05
   2428, 0.000233500003, 3.9999999e-05
   2429, 0.000233500003, 4.50000007e-05
   2430, 0.000233500003, 4.99999987e-05
   2431, 0.000233500003, 5.50000004e-05
   2432, 0.000233500003, 5.99999985e-05
   2433, 0.000233500003, 6.50000002e-05
   2434, 0.000233500003, 7.00000019e-05
   2435, 0.000233500003, 7.50000036e-05
   2436, 0.000233500003, 7.9999998e-05
   2437, 0.000233500003, 8.49999997e-05
   2438, 0.000233500003, 9.00000014e-05
   2439, 0.000233500003, 9.50000031e-05
   2440, 0.000233500003, 9.99999975e-05
   2441, 0.000233500003, 0.000104999999
   2442, 0.000233500003, 0.000110000001
   2443, 0.000233500003, 0.000115000003
   2444, 0.000233500003, 0.000119999997
   2445, 0.000233500003, 0.000125000006
   2446, 0.000233500003,      0.00013
   2447, 0.000233500003, 0.000134999995
   2448, 0.000233500003, 0.000140000004
   2449, 0.000233500003, 0.000144999998
   2450, 0.000233500003, 0.000150000007
   2451, 0.000233500003, 0.000155000002
   2452, 0.000233500003, 0.000159999996
   2453, 0.000233500003, 0.000165000005
   2454, 0.000233500003, 0.000169999999
   2455, 0.000233500003, 0.000174999994
   2456, 0.000233500003, 0.000180000003
   2457, 0.000233500003, 0.000184999997
   2458, 0.000233500003, 0.000190000006
   2459, 0.000233500003, 0.000195000001
   2460, 0.000232000006, 4.99999987e-06
   2461, 0.000232000006, 9.99999975e-06
   2462, 0.000232000006, 1.49999996e-05
   2463, 0.000232000006, 1.99999995e-05
   2464, 0.000232000006, 2.49999994e-05
   2465, 0.000232000006, 2.99999992e-05
   2466, 0.000232000006, 3.50000009e-05
   2467, 0.000232000006, 3.9999999e-05
   2468, 0.000232000006, 4.50000007e-05
   2469, 0.000232000006, 4.99999987e-05
   2470, 0.000232000006, 5.50000004e-05
   2471, 0.000232000006, 5.99999985e-05
   2472, 0.000232000006, 6.50000002e-05
   2473, 0.000232000006, 7.00000019e-05
   2474, 0.000232000006, 7.50000036e-05
   2475, 0.000232000006, 7.9999998e-05
   2476, 0.000232000006, 8.49999997e-05
   2477, 0.000232000006, 9.00000014e-05
   2478, 0.000232000006, 9.50000031e-05
   2479, 0.000232000006, 9.99999975e-05
   2480, 0.000232000006, 0.000104999999
   2481, 0.000232000006, 0.000110000001
   2482, 0.000232000006, 0.000115000003
   2483, 0.000232000006, 0.000119999997
   2484, 0.000232000006, 0.000125000006
   2485, 0.000232000006,      0.00013
   2486, 0.000232000006, 0.000134999995
   2487, 0.000232000006, 0.000140000004
   2488, 0.000232000006, 0.000144999998
   2489, 0.000232000006, 0.000150000007
   2490, 0.000232000006, 0.000155000002
   2491, 0.000232000006, 0.000159999996
   2492, 0.000232000006, 0.000165000005
   2493, 0.000232000006, 0.000169999999
   2494, 0.000232000006, 0.000174999994
   2495, 0.000232000006, 0.000180000003
   2496, 0.000232000006, 0.000184999997
   2497, 0.000232000006, 0.000190000006
   2498, 0.000232000006, 0.000195000001
   2499, 0.000230499994, 4.99999987e-06
   2500, 0.000230499994, 9.99999975e-06
   2501, 0.000230499994, 1.49999996e-05
   2502, 0.000230499994, 1.99999995e-05
   2503, 0.000230499994, 2.49999994e-05
   2504, 0.000230499994, 2.99999992e-05
   2505, 0.000230499994, 3.50000009e-05
   2506, 0.000230499994, 3.9999999e-05
   2507, 0.000230499994, 4.50000007e-05
   2508, 0.000230499994, 4.99999987e-05
   2509, 0.000230499994, 5.50000004e-05
   2510, 0.000230499994, 5.99999985e-05
   2511, 0.000230499994, 6.50000002e-05
   2512, 0.000230499994, 7.00000019e-05
   2513, 0.000230499994, 7.50000036e-05
   2514, 0.000230499994, 7.9999998e-05
   2515, 0.000230499994, 8.49999997e-05
   2516, 0.000230499994, 9.00000014e-05
   2517, 0.000230499994, 9.50000031e-05
   2518, 0.000230499994, 9.99999975e-05
   2519, 0.000230499994, 0.000104999999
   2520, 0.000230499994, 0.000110000001
   2521, 0.000230499994, 0.000115000003
   2522, 0.000230499994, 0.000119999997
   2523, 0.000230499994, 0.000125000006
   2524, 0.000230499994,      0.00013
   2525, 0.000230499994, 0.000134999995
   2526, 0.000230499994, 0.000140000004
   2527, 0.000230499994, 0.000144999998
   2528, 0.000230499994, 0.000150000007
   2529, 0.000230499994, 0.000155000002
   2530, 0.000230499994, 0.000159999996
   2531, 0.000230499994, 0.000165000005
   2532, 0.000230499994, 0.000169999999
   2533, 0.000230499994, 0.000174999994
   2534, 0.000230499994, 0.000180000003
   2535, 0.000230499994, 0.000184999997
   2536, 0.000230499994, 0.000190000006
   2537, 0.000230499994, 0.000195000001
   2538, 0.000228999997, 4.99999987e-06
   2539, 0.000228999997, 9.99999975e-06
   2540, 0.000228999997, 1.49999996e-05
   2541, 0.000228999997, 1.99999995e-05
   2542, 0.000228999997, 2.49999994e-05
   2543, 0.000228999997, 2.99999992e-05
   2544, 0.000228999997, 3.50000009e-05
   2545, 0.000228999997, 3.9999999e-05
   2546, 0.000228999997, 4.50000007e-05
   2547, 0.000228999997, 4.99999987e-05
   2548, 0.000228999997, 5.50000004e-05
   2549, 0.000228999997, 5.99999985e-05
   2550, 0.000228999997, 6.50000002e-05
   2551, 0.000228999997, 7.00000019e-05
   2552, 0.000228999997, 7.50000036e-05
   2553, 0.000228999997, 7.9999998e-05
   2554, 0.000228999997, 8.49999997e-05
   2555, 0.000228999997, 9.00000014e-05
   2556, 0.000228999997, 9.50000031e-05
   2557, 0.000228999997, 9.99999975e-05
   2558, 0.000228999997, 0.000104999999
   2559, 0.000228999997, 0.000110000001
   2560, 0.000228999997, 0.000115000003
   2561, 0.000228999997, 0.000119999997
   2562, 0.000228999997, 0.000125000006
   2563, 0.000228999997,      0.00013
   2564, 0.000228999997, 0.000134999995
   2565, 0.000228999997, 0.000140000004
   2566, 0.000228999997, 0.000144999998
   2567, 0.000228999997, 0.000150000007
   2568, 0.000228999997, 0.000155000002
   2569, 0.000228999997, 0.000159999996
   2570, 0.000228999997, 0.000165000005
   2571, 0.000228999997, 0.000169999999
   2572, 0.000228999997, 0.000174999994
   2573, 0.000228999997, 0.000180000003
   2574, 0.000228999997, 0.000184999997
   2575, 0.000228999997, 0.000190000006
   2576, 0.000228999997, 0.000195000001
   2577, 0.000227500001, 4.99999987e-06
   2578, 0.000227500001, 9.99999975e-06
   2579, 0.000227500001, 1.49999996e-05
   2580, 0.000227500001, 1.99999995e-05
   2581, 0.000227500001, 2.49999994e-05
   2582, 0.000227500001, 2.99999992e-05
   2583, 0.000227500001, 3.50000009e-05
   2584, 0.000227500001, 3.9999999e-05
   2585, 0.000227500001, 4.50000007e-05
   2586, 0.000227500001, 4.99999987e-05
   2587, 0.000227500001, 5.50000004e-05
   2588, 0.000227500001, 5.99999985e-05
   2589, 0.000227500001, 6.50000002e-05
   2590, 0.000227500001, 7.00000019e-05
   2591, 0.000227500001, 7.50000036e-05
   2592, 0.000227500001, 7.9999998e-05
   2593, 0.000227500001, 8.49999997e-05
   2594, 0.000227500001, 9.00000014e-05
   2595, 0.000227500001, 9.50000031e-05
   2596, 0.000227500001, 9.99999975e-05
   2597, 0.000227500001, 0.000104999999
   2598, 0.000227500001, 0.000110000001
   2599, 0.000227500001, 0.000115000003
   2600, 0.000227500001, 0.000119999997
   2601, 0.000227500001, 0.000125000006
   2602, 0.000227500001,      0.00013
   2603, 0.000227500001, 0.000134999995
   2604, 0.000227500001, 0.000140000004
   2605, 0.000227500001, 0.000144999998
   2606, 0.000227500001, 0.000150000007
   2607, 0.000227500001, 0.000155000002
   2608, 0.000227500001, 0.000159999996
   2609, 0.000227500001, 0.000165000005
   2610, 0.000227500001, 0.000169999999
   2611, 0.000227500001, 0.000174999994
   2612, 0.000227500001, 0.000180000003
   2613, 0.000227500001, 0.000184999997
   2614, 0.000227500001, 0.000190000006
   2615, 0.000227500001, 0.000195000001
   2616, 0.000226000004, 4.99999987e-06
   2617, 0.000226000004, 9.99999975e-06
   2618, 0.000226000004, 1.49999996e-05
   2619, 0.000226000004, 1.99999995e-05
   2620, 0.000226000004, 2.49999994e-05
   2621, 0.000226000004, 2.99999992e-05
   2622, 0.000226000004, 3.50000009e-05
   2623, 0.000226000004, 3.9999999e-05
   2624, 0.000226000004, 4.50000007e-05
   2625, 0.000226000004, 4.99999987e-05
   2626, 0.000226000004, 5.50000004e-05
   2627, 0.000226000004, 5.99999985e-05
   2628, 0.000226000004, 6.50000002e-05
   2629, 0.000226000004, 7.00000019e-05
   2630, 0.000226000004, 7.50000036e-05
   2631, 0.000226000004, 7.9999998e-05
   2632, 0.000226000004, 8.49999997e-05
   2633, 0.000226000004, 9.00000014e-05
   2634, 0.000226000004, 9.50000031e-05
   2635, 0.000226000004, 9.99999975e-05
   2636, 0.000226000004, 0.000104999999
   2637, 0.000226000004, 0.000110000001
   2638, 0.000226000004, 0.000115000003
   2639, 0.000226000004, 0.000119999997
   2640, 0.000226000004, 0.000125000006
   2641, 0.000226000004,      0.00013
   2642, 0.000226000004, 0.000134999995
   2643, 0.000226000004, 0.000140000004
   2644, 0.000226000004, 0.000144999998
   2645, 0.000226000004, 0.000150000007
   2646, 0.000226000004, 0.000155000002
   2647, 0.000226000004, 0.000159999996
   2648, 0.000226000004, 0.000165000005
   2649, 0.000226000004, 0.000169999999
   2650, 0.000226000004, 0.000174999994
   2651, 0.000226000004, 0.000180000003
   2652, 0.000226000004, 0.000184999997
   2653, 0.000226000004, 0.000190000006
   2654, 0.000226000004, 0.000195000001
   2655, 0.000224500007, 4.99999987e-06
   2656, 0.000224500007, 9.99999975e-06
   2657, 0.000224500007, 1.49999996e-05
   2658, 0.000224500007, 1.99999995e-05
   2659, 0.000224500007, 2.49999994e-05
   2660, 0.000224500007, 2.99999992e-05
   2661, 0.000224500007, 3.50000009e-05
   2662, 0.000224500007, 3.9999999e-05
   2663, 0.000224500007, 4.50000007e-05
   2664, 0.000224500007, 4.99999987e-05
   2665, 0.000224500007, 5.50000004e-05
   2666, 0.000224500007, 5.99999985e-05
   2667, 0.000224500007, 6.50000002e-05
   2668, 0.000224500007, 7.00000019e-05
   2669, 0.000224500007, 7.50000036e-05
   2670, 0.000224500007, 7.9999998e-05
   2671, 0.000224500007, 8.49999997e-05
   2672, 0.000224500007, 9.00000014e-05
   2673, 0.000224500007, 9.50000031e-05
   2674, 0.000224500007, 9.99999975e-05
   2675, 0.000224500007, 0.000104999999
   2676, 0.000224500007, 0.000110000001
   2677, 0.000224500007, 0.000115000003
   2678, 0.000224500007, 0.000119999997
   2679, 0.000224500007, 0.000125000006
   2680, 0.000224500007,      0.00013
   2681, 0.000224500007, 0.000134999995
   2682, 0.000224500007, 0.000140000004
   2683, 0.000224500007, 0.000144999998
   2684, 0.000224500007, 0.000150000007
   2685, 0.000224500007, 0.000155000002
   2686, 0.000224500007, 0.000159999996
   2687, 0.000224500007, 0.000165000005
   2688, 0.000224500007, 0.000169999999
   2689, 0.000224500007, 0.000174999994
   2690, 0.000224500007, 0.000180000003
   2691, 0.000224500007, 0.000184999997
   2692, 0.000224500007, 0.000190000006
   2693, 0.000224500007, 0.000195000001
   2694, 0.000222999995, 4.99999987e-06
   2695, 0.000222999995, 9.99999975e-06
   2696, 0.000222999995, 1.49999996e-05
   2697, 0.000222999995, 1.99999995e-05
   2698, 0.000222999995, 2.49999994e-05
   2699, 0.000222999995, 2.99999992e-05
   2700, 0.000222999995, 3.50000009e-05
   2701, 0.000222999995, 3.9999999e-05
   2702, 0.000222999995, 4.50000007e-05
   2703, 0.000222999995, 4.99999987e-05
   2704, 0.000222999995, 5.50000004e-05
   2705, 0.000222999995, 5.99999985e-05
   2706, 0.000222999995, 6.50000002e-05
   2707, 0.000222999995, 7.00000019e-05
   2708, 0.000222999995, 7.50000036e-05
   2709, 0.000222999995, 7.9999998e-05
   2710, 0.000222999995, 8.49999997e-05
   2711, 0.000222999995, 9.00000014e-05
   2712, 0.000222999995, 9.50000031e-05
   2713, 0.000222999995, 9.99999975e-05
   2714, 0.000222999995, 0.000104999999
   2715, 0.000222999995, 0.000110000001
   2716, 0.000222999995, 0.000115000003
   2717, 0.000222999995, 0.000119999997
   2718, 0.000222999995, 0.000125000006
   2719, 0.000222999995,      0.00013
   2720, 0.000222999995, 0.000134999995
   2721, 0.000222999995, 0.000140000004
   2722, 0.000222999995, 0.000144999998
   2723, 0.000222999995, 0.000150000007
   2724, 0.000222999995, 0.000155000002
   2725, 0.000222999995, 0.000159999996
   2726, 0.000222999995, 0.000165000005
   2727, 0.000222999995, 0.000169999999
   2728, 0.000222999995, 0.000174999994
   2729, 0.000222999995, 0.000180000003
   2730, 0.000222999995, 0.000184999997
   2731, 0.000222999995, 0.000190000006
   2732, 0.000222999995, 0.000195000001
   2733, 0.000221499999, 4.99999987e-06
   2734, 0.000221499999, 9.99999975e-06
   2735, 0.000221499999, 1.49999996e-05
   2736, 0.000221499999, 1.99999995e-05
   2737, 0.000221499999, 2.49999994e-05
   2738, 0.000221499999, 2.99999992e-05
   2739, 0.000221499999, 3.50000009e-05
   2740, 0.000221499999, 3.9999999e-05
   2741, 0.000221499999, 4.50000007e-05
   2742, 0.000221499999, 4.99999987e-05
   2743, 0.000221499999, 5.50000004e-05
   2744, 0.000221499999, 5.99999985e-05
   2745, 0.000221499999, 6.50000002e-05
   2746, 0.000221499999, 7.00000019e-05
   2747, 0.000221499999, 7.50000036e-05
   2748, 0.000221499999, 7.9999998e-05
   2749, 0.000221499999, 8.49999997e-05
   2750, 0.000221499999, 9.00000014e-05
   2751, 0.000221499999, 9.50000031e-05
   2752, 0.000221499999, 9.99999975e-05
   2753, 0.000221499999, 0.000104999999
   2754, 0.000221499999, 0.000110000001
   2755, 0.000221499999, 0.000115000003
   2756, 0.000221499999, 0.000119999997
   2757, 0.000221499999, 0.000125000006
   2758, 0.000221499999,      0.00013
   2759, 0.000221499999, 0.000134999995
   2760, 0.000221499999, 0.000140000004
   2761, 0.000221499999, 0.000144999998
   2762, 0.000221499999, 0.000150000007
   2763, 0.000221499999, 0.000155000002
   2764, 0.000221499999, 0.000159999996
   2765, 0.000221499999, 0.000165000005
   2766, 0.000221499999, 0.000169999999
   2767, 0.000221499999, 0.000174999994
   2768, 0.000221499999, 0.000180000003
   2769, 0.000221499999, 0.000184999997
   2770, 0.000221499999, 0.000190000006
   2771, 0.000221499999, 0.000195000001
   2772, 0.000220000002, 4.99999987e-06
   2773, 0.000220000002, 9.99999975e-06
   2774, 0.000220000002, 1.49999996e-05
   2775, 0.000220000002, 1.99999995e-05
   2776, 0.000220000002, 2.49999994e-05
   2777, 0.000220000002, 2.99999992e-05
   2778, 0.000220000002, 3.50000009e-05
   2779, 0.000220000002, 3.9999999e-05
   2780, 0.000220000002, 4.50000007e-05
   2781, 0.000220000002, 4.99999987e-05
   2782, 0.000220000002, 5.50000004e-05
   2783, 0.000220000002, 5.99999985e-05
   2784, 0.000220000002, 6.50000002e-05
   2785, 0.000220000002, 7.00000019e-05
   2786, 0.000220000002, 7.50000036e-05
   2787, 0.000220000002, 7.9999998e-05
   2788, 0.000220000002, 8.49999997e-05
   2789, 0.000220000002, 9.00000014e-05
   2790, 0.000220000002, 9.50000031e-05
   2791, 0.000220000002, 9.99999975e-05
   2792, 0.000220000002, 0.000104999999
   2793, 0.000220000002, 0.000110000001
   2794, 0.000220000002, 0.000115000003
   2795, 0.000220000002, 0.000119999997
   2796, 0.000220000002, 0.000125000006
   2797, 0.000220000002,      0.00013
   2798, 0.000220000002, 0.000134999995
   2799, 0.000220000002, 0.000140000004
   2800, 0.000220000002, 0.000144999998
   2801, 0.000220000002, 0.000150000007
   2802, 0.000220000002, 0.000155000002
   2803, 0.000220000002, 0.000159999996
   2804, 0.000220000002, 0.000165000005
   2805, 0.000220000002, 0.000169999999
   2806, 0.000220000002, 0.000174999994
   2807, 0.000220000002, 0.000180000003
   2808, 0.000220000002, 0.000184999997
   2809, 0.000220000002, 0.000190000006
   2810, 0.000220000002, 0.000195000001
   2811, 0.000218500005, 4.99999987e-06
   2812, 0.000218500005, 9.99999975e-06
   2813, 0.000218500005, 1.49999996e-05
   2814, 0.000218500005, 1.99999995e-05
   2815, 0.000218500005, 2.49999994e-05
   2816, 0.000218500005, 2.99999992e-05
   2817, 0.000218500005, 3.50000009e-05
   2818, 0.000218500005, 3.9999999e-05
   2819, 0.000218500005, 4.50000007e-05
   2820, 0.000218500005, 4.99999987e-05
   2821, 0.000218500005, 5.50000004e-05
   2822, 0.000218500005, 5.99999985e-05
   2823, 0.000218500005, 6.50000002e-05
   2824, 0.000218500005, 7.00000019e-05
   2825, 0.000218500005, 7.50000036e-05
   2826, 0.000218500005, 7.9999998e-05
   2827, 0.000218500005, 8.49999997e-05
   2828, 0.000218500005, 9.00000014e-05
   2829, 0.000218500005, 9.50000031e-05
   2830, 0.000218500005, 9.99999975e-05
   2831, 0.000218500005, 0.000104999999
   2832, 0.000218500005, 0.000110000001
   2833, 0.000218500005, 0.000115000003
   2834, 0.000218500005, 0.000119999997
   2835, 0.000218500005, 0.000125000006
   2836, 0.000218500005,      0.00013
   2837, 0.000218500005, 0.000134999995
   2838, 0.000218500005, 0.000140000004
   2839, 0.000218500005, 0.000144999998
   2840, 0.000218500005, 0.000150000007
   2841, 0.000218500005, 0.000155000002
   2842, 0.000218500005, 0.000159999996
   2843, 0.000218500005, 0.000165000005
   2844, 0.000218500005, 0.000169999999
   2845, 0.000218500005, 0.000174999994
   2846, 0.000218500005, 0.000180000003
   2847, 0.000218500005, 0.000184999997
   2848, 0.000218500005, 0.000190000006
   2849, 0.000218500005, 0.000195000001
   2850, 0.000216999993, 4.99999987e-06
   2851, 0.000216999993, 9.99999975e-06
   2852, 0.000216999993, 1.49999996e-05
   2853, 0.000216999993, 1.99999995e-05
   2854, 0.000216999993, 2.49999994e-05
   2855, 0.000216999993, 2.99999992e-05
   2856, 0.000216999993, 3.50000009e-05
   2857, 0.000216999993, 3.9999999e-05
   2858, 0.000216999993, 4.50000007e-05
   2859, 0.000216999993, 4.99999987e-05
   2860, 0.000216999993, 5.50000004e-05
   2861, 0.000216999993, 5.99999985e-05
   2862, 0.000216999993, 6.50000002e-05
   2863, 0.000216999993, 7.00000019e-05
   2864, 0.000216999993, 7.50000036e-05
   2865, 0.000216999993, 7.9999998e-05
   2866, 0.000216999993, 8.49999997e-05
   2867, 0.000216999993, 9.00000014e-05
   2868, 0.000216999993, 9.50000031e-05
   2869, 0.000216999993, 9.99999975e-05
   2870, 0.000216999993, 0.000104999999
   2871, 0.000216999993, 0.000110000001
   2872, 0.000216999993, 0.000115000003
   2873, 0.000216999993, 0.000119999997
   2874, 0.000216999993, 0.000125000006
   2875, 0.000216999993,      0.00013
   2876, 0.000216999993, 0.000134999995
   2877, 0.000216999993, 0.000140000004
   2878, 0.000216999993, 0.000144999998
   2879, 0.000216999993, 0.000150000007
   2880, 0.000216999993, 0.000155000002
   2881, 0.000216999993, 0.000159999996
   2882, 0.000216999993, 0.000165000005
   2883, 0.000216999993, 0.000169999999
   2884, 0.000216999993, 0.000174999994
   2885, 0.000216999993, 0.000180000003
   2886, 0.000216999993, 0.000184999997
   2887, 0.000216999993, 0.000190000006
   2888, 0.000216999993, 0.000195000001
   2889, 0.000215499997, 4.99999987e-06
   2890, 0.000215499997, 9.99999975e-06
   2891, 0.000215499997, 1.49999996e-05
   2892, 0.000215499997, 1.99999995e-05
   2893, 0.000215499997, 2.49999994e-05
   2894, 0.000215499997, 2.99999992e-05
   2895, 0.000215499997, 3.50000009e-05
   2896, 0.000215499997, 3.9999999e-05
   2897, 0.000215499997, 4.50000007e-05
   2898, 0.000215499997, 4.99999987e-05
   2899, 0.000215499997, 5.50000004e-05
   2900, 0.000215499997, 5.99999985e-05
   2901, 0.000215499997, 6.50000002e-05
   2902, 0.000215499997, 7.00000019e-05
   2903, 0.000215499997, 7.50000036e-05
   2904, 0.000215499997, 7.9999998e-05
   2905, 0.000215499997, 8.49999997e-05
   2906, 0.000215499997, 9.00000014e-05
   2907, 0.000215499997, 9.50000031e-05
   2908, 0.000215499997, 9.99999975e-05
   2909, 0.000215499997, 0.000104999999
   2910, 0.000215499997, 0.000110000001
   2911, 0.000215499997, 0.000115000003
   2912, 0.000215499997, 0.000119999997
   2913, 0.000215499997, 0.000125000006
   2914, 0.000215499997,      0.00013
   2915, 0.000215499997, 0.000134999995
   2916, 0.000215499997, 0.000140000004
   2917, 0.000215499997, 0.000144999998
   2918, 0.000215499997, 0.000150000007
   2919, 0.000215499997, 0.000155000002
   2920, 0.000215499997, 0.000159999996
   2921, 0.000215499997, 0.000165000005
   2922, 0.000215499997, 0.000169999999
   2923, 0.000215499997, 0.000174999994
   2924, 0.000215499997, 0.000180000003
   2925, 0.000215499997, 0.000184999997
   2926, 0.000215499997, 0.000190000006
   2927, 0.000215499997, 0.000195000001
   2928,     0.000214, 4.99999987e-06
   2929,     0.000214, 9.99999975e-06
   2930,     0.000214, 1.49999996e-05
   2931,     0.000214, 1.99999995e-05
   2932,     0.000214, 2.49999994e-05
   2933,     0.000214, 2.99999992e-05
   2934,     0.000214, 3.50000009e-05
   2935,     0.000214, 3.9999999e-05
   2936,     0.000214, 4.50000007e-05
   2937,     0.000214, 4.99999987e-05
   2938,     0.000214, 5.50000004e-05
   2939,     0.000214, 5.99999985e-05
   2940,     0.000214, 6.50000002e-05
   2941,     0.000214, 7.00000019e-05
   2942,     0.000214, 7.50000036e-05
   2943,     0.000214, 7.9999998e-05
   2944,     0.000214, 8.49999997e-05
   2945,     0.000214, 9.00000014e-05
   2946,     0.000214, 9.50000031e-05
   2947,     0.000214, 9.99999975e-05
   2948,     0.000214, 0.000104999999
   2949,     0.000214, 0.000110000001
   2950,     0.000214, 0.000115000003
   2951,     0.000214, 0.000119999997
   2952,     0.000214, 0.000125000006
   2953,     0.000214,      0.00013
   2954,     0.000214, 0.000134999995
   2955,     0.000214, 0.000140000004
   2956,     0.000214, 0.000144999998
   2957,     0.000214, 0.000150000007
   2958,     0.000214, 0.000155000002
   2959,     0.000214, 0.000159999996
   2960,     0.000214, 0.000165000005
   2961,     0.000214, 0.000169999999
   2962,     0.000214, 0.000174999994
   2963,     0.000214, 0.000180000003
   2964,     0.000214, 0.000184999997
   2965,     0.000214, 0.000190000006
   2966,     0.000214, 0.000195000001
   2967, 0.000212500003, 4.99999987e-06
   2968, 0.000212500003, 9.99999975e-06
   2969, 0.000212500003, 1.49999996e-05
   2970, 0.000212500003, 1.99999995e-05
   2971, 0.000212500003, 2.49999994e-05
   2972, 0.000212500003, 2.99999992e-05
   2973, 0.000212500003, 3.50000009e-05
   2974, 0.000212500003, 3.9999999e-05
   2975, 0.000212500003, 4.50000007e-05
   2976, 0.000212500003, 4.99999987e-05
   2977, 0.000212500003, 5.50000004e-05
   2978, 0.000212500003, 5.99999985e-05
   2979, 0.000212500003, 6.50000002e-05
   2980, 0.000212500003, 7.00000019e-05
   2981, 0.000212500003, 7.50000036e-05
   2982, 0.000212500003, 7.9999998e-05
   2983, 0.000212500003, 8.49999997e-05
   2984, 0.000212500003, 9.00000014e-05
   2985, 0.000212500003, 9.50000031e-05
   2986, 0.000212500003, 9.99999975e-05
   2987, 0.000212500003, 0.000104999999
   2988, 0.000212500003, 0.000110000001
   2989, 0.000212500003, 0.000115000003
   2990, 0.000212500003, 0.000119999997
   2991, 0.000212500003, 0.000125000006
   2992, 0.000212500003,      0.00013
   2993, 0.000212500003, 0.000134999995
   2994, 0.000212500003, 0.000140000004
   2995, 0.000212500003, 0.000144999998
   2996, 0.000212500003, 0.000150000007
   2997, 0.000212500003, 0.000155000002
   2998, 0.000212500003, 0.000159999996
   2999, 0.000212500003, 0.000165000005
   3000, 0.000212500003, 0.000169999999
   3001, 0.000212500003, 0.000174999994
   3002, 0.000212500003, 0.000180000003
   3003, 0.000212500003, 0.000184999997
   3004, 0.000212500003, 0.000190000006
   3005, 0.000212500003, 0.000195000001
   3006, 0.000211000006, 4.99999987e-06
   3007, 0.000211000006, 9.99999975e-06
   3008, 0.000211000006, 1.49999996e-05
   3009, 0.000211000006, 1.99999995e-05
   3010, 0.000211000006, 2.49999994e-05
   3011, 0.000211000006, 2.99999992e-05
   3012, 0.000211000006, 3.50000009e-05
   3013, 0.000211000006, 3.9999999e-05
   3014, 0.000211000006, 4.50000007e-05
   3015, 0.000211000006, 4.99999987e-05
   3016, 0.000211000006, 5.50000004e-05
   3017, 0.000211000006, 5.99999985e-05
   3018, 0.000211000006, 6.50000002e-05
   3019, 0.000211000006, 7.00000019e-05
   3020, 0.000211000006, 7.50000036e-05
   3021, 0.000211000006, 7.9999998e-05
   3022, 0.000211000006, 8.49999997e-05
   3023, 0.000211000006, 9.00000014e-05
   3024, 0.000211000006, 9.50000031e-05
   3025, 0.000211000006, 9.99999975e-05
   3026, 0.000211000006, 0.000104999999
   3027, 0.000211000006, 0.000110000001
   3028, 0.000211000006, 0.000115000003
   3029, 0.000211000006, 0.000119999997
   3030, 0.000211000006, 0.000125000006
   3031, 0.000211000006,      0.00013
   3032, 0.000211000006, 0.000134999995
   3033, 0.000211000006, 0.000140000004
   3034, 0.000211000006, 0.000144999998
   3035, 0.000211000006, 0.000150000007
   3036, 0.000211000006, 0.000155000002
   3037, 0.000211000006, 0.000159999996
   3038, 0.000211000006, 0.000165000005
   3039, 0.000211000006, 0.000169999999
   3040, 0.000211000006, 0.000174999994
   3041, 0.000211000006, 0.000180000003
   3042, 0.000211000006, 0.000184999997
   3043, 0.000211000006, 0.000190000006
   3044, 0.000211000006, 0.000195000001
   3045, 0.000209499995, 4.99999987e-06
   3046, 0.000209499995, 9.99999975e-06
   3047, 0.000209499995, 1.49999996e-05
   3048, 0.000209499995, 1.99999995e-05
   3049, 0.000209499995, 2.49999994e-05
   3050, 0.000209499995, 2.99999992e-05
   3051, 0.000209499995, 3.50000009e-05
   3052, 0.000209499995, 3.9999999e-05
   3053, 0.000209499995, 4.50000007e-05
   3054, 0.000209499995, 4.99999987e-05
   3055, 0.000209499995, 5.50000004e-05
   3056, 0.000209499995, 5.99999985e-05
   3057, 0.000209499995, 6.50000002e-05
   3058, 0.000209499995, 7.00000019e-05
   3059, 0.000209499995, 7.50000036e-05
   3060, 0.000209499995, 7.9999998e-05
   3061, 0.000209499995, 8.49999997e-05
   3062, 0.000209499995, 9.00000014e-05
   3063, 0.000209499995, 9.50000031e-05
   3064, 0.000209499995, 9.99999975e-05
   3065, 0.000209499995, 0.000104999999
   3066, 0.000209499995, 0.000110000001
   3067, 0.000209499995, 0.000115000003
   3068, 0.000209499995, 0.000119999997
   3069, 0.000209499995, 0.000125000006
   3070, 0.000209499995,      0.00013
   3071, 0.000209499995, 0.000134999995
   3072, 0.000209499995, 0.000140000004
   3073, 0.000209499995, 0.000144999998
   3074, 0.000209499995, 0.000150000007
   3075, 0.000209499995, 0.000155000002
   3076, 0.000209499995, 0.000159999996
   3077, 0.000209499995, 0.000165000005
   3078, 0.000209499995, 0.000169999999
   3079, 0.000209499995, 0.000174999994
   3080, 0.000209499995, 0.000180000003
   3081, 0.000209499995, 0.000184999997
   3082, 0.000209499995, 0.000190000006
   3083, 0.000209499995, 0.000195000001
   3084, 0.000207999998, 4.99999987e-06
   3085, 0.000207999998, 9.99999975e-06
   3086, 0.000207999998, 1.49999996e-05
   3087, 0.000207999998, 1.99999995e-05
   3088, 0.000207999998, 2.49999994e-05
   3089, 0.000207999998, 2.99999992e-05
   3090, 0.000207999998, 3.50000009e-05
   3091, 0.000207999998, 3.9999999e-05
   3092, 0.000207999998, 4.50000007e-05
   3093, 0.000207999998, 4.99999987e-05
   3094, 0.000207999998, 5.50000004e-05
   3095, 0.000207999998, 5.99999985e-05
   3096, 0.000207999998, 6.50000002e-05
   3097, 0.000207999998, 7.00000019e-05
   3098, 0.000207999998, 7.50000036e-05
   3099, 0.000207999998, 7.9999998e-05
   3100, 0.000207999998, 8.49999997e-05
   3101, 0.000207999998, 9.00000014e-05
   3102, 0.000207999998, 9.50000031e-05
   3103, 0.000207999998, 9.99999975e-05
   3104, 0.000207999998, 0.000104999999
   3105, 0.000207999998, 0.000110000001
   3106, 0.000207999998, 0.000115000003
   3107, 0.000207999998, 0.000119999997
   3108, 0.000207999998, 0.000125000006
   3109, 0.000207999998,      0.00013
   3110, 0.000207999998, 0.000134999995
   3111, 0.000207999998, 0.000140000004
   3112, 0.000207999998, 0.000144999998
   3113, 0.000207999998, 0.000150000007
   3114, 0.000207999998, 0.000155000002
   3115, 0.000207999998, 0.000159999996
   3116, 0.000207999998, 0.000165000005
   3117, 0.000207999998, 0.000169999999
   3118, 0.000207999998, 0.000174999994
   3119, 0.000207999998, 0.000180000003
   3120, 0.000207999998, 0.000184999997
   3121, 0.000207999998, 0.000190000006
   3122, 0.000207999998, 0.000195000001
   3123, 0.000206500001, 4.99999987e-06
   3124, 0.000206500001, 9.99999975e-06
   3125, 0.000206500001, 1.49999996e-05
   3126, 0.000206500001, 1.99999995e-05
   3127, 0.000206500001, 2.49999994e-05
   3128, 0.000206500001, 2.99999992e-05
   3129, 0.000206500001, 3.50000009e-05
   3130, 0.000206500001, 3.9999999e-05
   3131, 0.000206500001, 4.50000007e-05
   3132, 0.000206500001, 4.99999987e-05
   3133, 0.000206500001, 5.50000004e-05
   3134, 0.000206500001, 5.99999985e-05
   3135, 0.000206500001, 6.50000002e-05
   3136, 0.000206500001, 7.00000019e-05
   3137, 0.000206500001, 7.50000036e-05
   3138, 0.000206500001, 7.9999998e-05
   3139, 0.000206500001, 8.49999997e-05
   3140, 0.000206500001, 9.00000014e-05
   3141, 0.000206500001, 9.50000031e-05
   3142, 0.000206500001, 9.99999975e-05
   3143, 0.000206500001, 0.000104999999
   3144, 0.000206500001, 0.000110000001
   3145, 0.000206500001, 0.000115000003
   3146, 0.000206500001, 0.000119999997
   3147, 0.000206500001, 0.000125000006
   3148, 0.000206500001,      0.00013
   3149, 0.000206500001, 0.000134999995
   3150, 0.000206500001, 0.000140000004
   3151, 0.000206500001, 0.000144999998
   3152, 0.000206500001, 0.000150000007
   3153, 0.000206500001, 0.000155000002
   3154, 0.000206500001, 0.000159999996
   3155, 0.000206500001, 0.000165000005
   3156, 0.000206500001, 0.000169999999
   3157, 0.000206500001, 0.000174999994
   3158, 0.000206500001, 0.000180000003
   3159, 0.000206500001, 0.000184999997
   3160, 0.000206500001, 0.000190000006
   3161, 0.000206500001, 0.000195000001
   3162, 0.000205000004, 4.99999987e-06
   3163, 0.000205000004, 9.99999975e-06
   3164, 0.000205000004, 1.49999996e-05
   3165, 0.000205000004, 1.99999995e-05
   3166, 0.000205000004, 2.49999994e-05
   3167, 0.000205000004, 2.99999992e-05
   3168, 0.000205000004, 3.50000009e-05
   3169, 0.000205000004, 3.9999999e-05
   3170, 0.000205000004, 4.50000007e-05
   3171, 0.000205000004, 4.99999987e-05
   3172, 0.000205000004, 5.50000004e-05
   3173, 0.000205000004, 5.99999985e-05
   3174, 0.000205000004, 6.50000002e-05
   3175, 0.000205000004, 7.00000019e-05
   3176, 0.000205000004, 7.50000036e-05
   3177, 0.000205000004, 7.9999998e-05
   3178, 0.000205000004, 8.49999997e-05
   3179, 0.000205000004, 9.00000014e-05
   3180, 0.000205000004, 9.50000031e-05
   3181, 0.000205000004, 9.99999975e-05
   3182, 0.000205000004, 0.000104999999
   3183, 0.000205000004, 0.000110000001
   3184, 0.000205000004, 0.000115000003
   3185, 0.000205000004, 0.000119999997
   3186, 0.000205000004, 0.000125000006
   3187, 0.000205000004,      0.00013
   3188, 0.000205000004, 0.000134999995
   3189, 0.000205000004, 0.000140000004
   3190, 0.000205000004, 0.000144999998
   3191, 0.000205000004, 0.000150000007
   3192, 0.000205000004, 0.000155000002
   3193, 0.000205000004, 0.000159999996
   3194, 0.000205000004, 0.000165000005
   3195, 0.000205000004, 0.000169999999
   3196, 0.000205000004, 0.000174999994
   3197, 0.000205000004, 0.000180000003
   3198, 0.000205000004, 0.000184999997
   3199, 0.000205000004, 0.000190000006
   3200, 0.000205000004, 0.000195000001
   3201, 0.000203500007, 4.99999987e-06
   3202, 0.000203500007, 9.99999975e-06
   3203, 0.000203500007, 1.49999996e-05
   3204, 0.000203500007, 1.99999995e-05
   3205, 0.000203500007, 2.49999994e-05
   3206, 0.000203500007, 2.99999992e-05
   3207, 0.000203500007, 3.50000009e-05
   3208, 0.000203500007, 3.9999999e-05
   3209, 0.000203500007, 4.50000007e-05
   3210, 0.000203500007, 4.99999987e-05
   3211, 0.000203500007, 5.50000004e-05
   3212, 0.000203500007, 5.99999985e-05
   3213, 0.000203500007, 6.50000002e-05
   3214, 0.000203500007, 7.00000019e-05
   3215, 0.000203500007, 7.50000036e-05
   3216, 0.000203500007, 7.9999998e-05
   3217, 0.000203500007, 8.49999997e-05
   3218, 0.000203500007, 9.00000014e-05
   3219, 0.000203500007, 9.50000031e-05
   3220, 0.000203500007, 9.99999975e-05
   3221, 0.000203500007, 0.000104999999
   3222, 0.000203500007, 0.000110000001
   3223, 0.000203500007, 0.000115000003
   3224, 0.000203500007, 0.000119999997
   3225, 0.000203500007, 0.000125000006
   3226, 0.000203500007,      0.00013
   3227, 0.000203500007, 0.000134999995
   3228, 0.000203500007, 0.000140000004
   3229, 0.000203500007, 0.000144999998
   3230, 0.000203500007, 0.000150000007
   3231, 0.000203500007, 0.000155000002
   3232, 0.000203500007, 0.000159999996
   3233, 0.000203500007, 0.000165000005
   3234, 0.000203500007, 0.000169999999
   3235, 0.000203500007, 0.000174999994
   3236, 0.000203500007, 0.000180000003
   3237, 0.000203500007, 0.000184999997
   3238, 0.000203500007, 0.000190000006
   3239, 0.000203500007, 0.000195000001
   3240, 0.000201999996, 4.99999987e-06
   3241, 0.000201999996, 9.99999975e-06
   3242, 0.000201999996, 1.49999996e-05
   3243, 0.000201999996, 1.99999995e-05
   3244, 0.000201999996, 2.49999994e-05
   3245, 0.000201999996, 2.99999992e-05
   3246, 0.000201999996, 3.50000009e-05
   3247, 0.000201999996, 3.9999999e-05
   3248, 0.000201999996, 4.50000007e-05
   3249, 0.000201999996, 4.99999987e-05
   3250, 0.000201999996, 5.50000004e-05
   3251, 0.000201999996, 5.99999985e-05
   3252, 0.000201999996, 6.50000002e-05
   3253, 0.000201999996, 7.00000019e-05
   3254, 0.000201999996, 7.50000036e-05
   3255, 0.000201999996, 7.9999998e-05
   3256, 0.000201999996, 8.49999997e-05
   3257, 0.000201999996, 9.00000014e-05
   3258, 0.000201999996, 9.50000031e-05
   3259, 0.000201999996, 9.99999975e-05
   3260, 0.000201999996, 0.000104999999
   3261, 0.000201999996, 0.000110000001
   3262, 0.000201999996, 0.000115000003
   3263, 0.000201999996, 0.000119999997
   3264, 0.000201999996, 0.000125000006
   3265, 0.000201999996,      0.00013
   3266, 0.000201999996, 0.000134999995
   3267, 0.000201999996, 0.000140000004
   3268, 0.000201999996, 0.000144999998
   3269, 0.000201999996, 0.000150000007
   3270, 0.000201999996, 0.000155000002
   3271, 0.000201999996, 0.000159999996
   3272, 0.000201999996, 0.000165000005
   3273, 0.000201999996, 0.000169999999
   3274, 0.000201999996, 0.000174999994
   3275, 0.000201999996, 0.000180000003
   3276, 0.000201999996, 0.000184999997
   3277, 0.000201999996, 0.000190000006
   3278, 0.000201999996, 0.000195000001
   3279, 0.000200499999, 4.99999987e-06
   3280, 0.000200499999, 9.99999975e-06
   3281, 0.000200499999, 1.49999996e-05
   3282, 0.000200499999, 1.99999995e-05
   3283, 0.000200499999, 2.49999994e-05
   3284, 0.000200499999, 2.99999992e-05
   3285, 0.000200499999, 3.50000009e-05
   3286, 0.000200499999, 3.9999999e-05
   3287, 0.000200499999, 4.50000007e-05
   3288, 0.000200499999, 4.99999987e-05
   3289, 0.000200499999, 5.50000004e-05
   3290, 0.000200499999, 5.99999985e-05
   3291, 0.000200499999, 6.50000002e-05
   3292, 0.000200499999, 7.00000019e-05
   3293, 0.000200499999, 7.50000036e-05
   3294, 0.000200499999, 7.9999998e-05
   3295, 0.000200499999, 8.49999997e-05
   3296, 0.000200499999, 9.00000014e-05
   3297, 0.000200499999, 9.50000031e-05
   3298, 0.000200499999, 9.99999975e-05
   3299, 0.000200499999, 0.000104999999
   3300, 0.000200499999, 0.000110000001
   3301, 0.000200499999, 0.000115000003
   3302, 0.000200499999, 0.000119999997
   3303, 0.000200499999, 0.000125000006
   3304, 0.000200499999,      0.00013
   3305, 0.000200499999, 0.000134999995
   3306, 0.000200499999, 0.000140000004
   3307, 0.000200499999, 0.000144999998
   3308, 0.000200499999, 0.000150000007
   3309, 0.000200499999, 0.000155000002
   3310, 0.000200499999, 0.000159999996
   3311, 0.000200499999, 0.000165000005
   3312, 0.000200499999, 0.000169999999
   3313, 0.000200499999, 0.000174999994
   3314, 0.000200499999, 0.000180000003
   3315, 0.000200499999, 0.000184999997
   3316, 0.000200499999, 0.000190000006
   3317, 0.000200499999, 0.000195000001
   3318, 0.000199000002, 4.99999987e-06
   3319, 0.000199000002, 9.99999975e-06
   3320, 0.000199000002, 1.49999996e-05
   3321, 0.000199000002, 1.99999995e-05
   3322, 0.000199000002, 2.49999994e-05
   3323, 0.000199000002, 2.99999992e-05
   3324, 0.000199000002, 3.50000009e-05
   3325, 0.000199000002, 3.9999999e-05
   3326, 0.000199000002, 4.50000007e-05
   3327, 0.000199000002, 4.99999987e-05
   3328, 0.000199000002, 5.50000004e-05
   3329, 0.000199000002, 5.99999985e-05
   3330, 0.000199000002, 6.50000002e-05
   3331, 0.000199000002, 7.00000019e-05
   3332, 0.000199000002, 7.50000036e-05
   3333, 0.000199000002, 7.9999998e-05
   3334, 0.000199000002, 8.49999997e-05
   3335, 0.000199000002, 9.00000014e-05
   3336, 0.000199000002, 9.50000031e-05
   3337, 0.000199000002, 9.99999975e-05
   3338, 0.000199000002, 0.000104999999
   3339, 0.000199000002, 0.000110000001
   3340, 0.000199000002, 0.000115000003
   3341, 0.000199000002, 0.000119999997
   3342, 0.000199000002, 0.000125000006
   3343, 0.000199000002,      0.00013
   3344, 0.000199000002, 0.000134999995
   3345, 0.000199000002, 0.000140000004
   3346, 0.000199000002, 0.000144999998
   3347, 0.000199000002, 0.000150000007
   3348, 0.000199000002, 0.000155000002
   3349, 0.000199000002, 0.000159999996
   3350, 0.000199000002, 0.000165000005
   3351, 0.000199000002, 0.000169999999
   3352, 0.000199000002, 0.000174999994
   3353, 0.000199000002, 0.000180000003
   3354, 0.000199000002, 0.000184999997
   3355, 0.000199000002, 0.000190000006
   3356, 0.000199000002, 0.000195000001
   3357, 0.000197500005, 4.99999987e-06
   3358, 0.000197500005, 9.99999975e-06
   3359, 0.000197500005, 1.49999996e-05
   3360, 0.000197500005, 1.99999995e-05
   3361, 0.000197500005, 2.49999994e-05
   3362, 0.000197500005, 2.99999992e-05
   3363, 0.000197500005, 3.50000009e-05
   3364, 0.000197500005, 3.9999999e-05
   3365, 0.000197500005, 4.50000007e-05
   3366, 0.000197500005, 4.99999987e-05
   3367, 0.000197500005, 5.50000004e-05
   3368, 0.000197500005, 5.99999985e-05
   3369, 0.000197500005, 6.50000002e-05
   3370, 0.000197500005, 7.00000019e-05
   3371, 0.000197500005, 7.50000036e-05
   3372, 0.000197500005, 7.9999998e-05
   3373, 0.000197500005, 8.49999997e-05
   3374, 0.000197500005, 9.00000014e-05
   3375, 0.000197500005, 9.50000031e-05
   3376, 0.000197500005, 9.99999975e-05
   3377, 0.000197500005, 0.000104999999
   3378, 0.000197500005, 0.000110000001
   3379, 0.000197500005, 0.000115000003
   3380, 0.000197500005, 0.000119999997
   3381, 0.000197500005, 0.000125000006
   3382, 0.000197500005,      0.00013
   3383, 0.000197500005, 0.000134999995
   3384, 0.000197500005, 0.000140000004
   3385, 0.000197500005, 0.000144999998
   3386, 0.000197500005, 0.000150000007
   3387, 0.000197500005, 0.000155000002
   3388, 0.000197500005, 0.000159999996
   3389, 0.000197500005, 0.000165000005
   3390, 0.000197500005, 0.000169999999
   3391, 0.000197500005, 0.000174999994
   3392, 0.000197500005, 0.000180000003
   3393, 0.000197500005, 0.000184999997
   3394, 0.000197500005, 0.000190000006
   3395, 0.000197500005, 0.000195000001
   3396, 0.000195999994, 4.99999987e-06
   3397, 0.000195999994, 9.99999975e-06
   3398, 0.000195999994, 1.49999996e-05
   3399, 0.000195999994, 1.99999995e-05
   3400, 0.000195999994, 2.49999994e-05
   3401, 0.000195999994, 2.99999992e-05
   3402, 0.000195999994, 3.50000009e-05
   3403, 0.000195999994, 3.9999999e-05
   3404, 0.000195999994, 4.50000007e-05
   3405, 0.000195999994, 4.99999987e-05
   3406, 0.000195999994, 5.50000004e-05
   3407, 0.000195999994, 5.99999985e-05
   3408, 0.000195999994, 6.50000002e-05
   3409, 0.000195999994, 7.00000019e-05
   3410, 0.000195999994, 7.50000036e-05
   3411, 0.000195999994, 7.9999998e-05
   3412, 0.000195999994, 8.49999997e-05
   3413, 0.000195999994, 9.00000014e-05
   3414, 0.000195999994, 9.50000031e-05
   3415, 0.000195999994, 9.99999975e-05
   3416, 0.000195999994, 0.000104999999
   3417, 0.000195999994, 0.000110000001
   3418, 0.000195999994, 0.000115000003
   3419, 0.000195999994, 0.000119999997
   3420, 0.000195999994, 0.000125000006
   3421, 0.000195999994,      0.00013
   3422, 0.000195999994, 0.000134999995
   3423, 0.000195999994, 0.000140000004
   3424, 0.000195999994, 0.000144999998
   3425, 0.000195999994, 0.000150000007
   3426, 0.000195999994, 0.000155000002
   3427, 0.000195999994, 0.000159999996
   3428, 0.000195999994, 0.000165000005
   3429, 0.000195999994, 0.000169999999
   3430, 0.000195999994, 0.000174999994
   3431, 0.000195999994, 0.000180000003
   3432, 0.000195999994, 0.000184999997
   3433, 0.000195999994, 0.000190000006
   3434, 0.000195999994, 0.000195000001
   3435, 0.000194499997, 4.99999987e-06
   3436, 0.000194499997, 9.99999975e-06
   3437, 0.000194499997, 1.49999996e-05
   3438, 0.000194499997, 1.99999995e-05
   3439, 0.000194499997, 2.49999994e-05
   3440, 0.000194499997, 2.99999992e-05
   3441, 0.000194499997, 3.50000009e-05
   3442, 0.000194499997, 3.9999999e-05
   3443, 0.000194499997, 4.50000007e-05
   3444, 0.000194499997, 4.99999987e-05
   3445, 0.000194499997, 5.50000004e-05
   3446, 0.000194499997, 5.99999985e-05
   3447, 0.000194499997, 6.50000002e-05
   3448, 0.000194499997, 7.00000019e-05
   3449, 0.000194499997, 7.50000036e-05
   3450, 0.000194499997, 7.9999998e-05
   3451, 0.000194499997, 8.49999997e-05
   3452, 0.000194499997, 9.00000014e-05
   3453, 0.000194499997, 9.50000031e-05
   3454, 0.000194499997, 9.99999975e-05
   3455, 0.000194499997, 0.000104999999
   3456, 0.000194499997, 0.000110000001
   3457, 0.000194499997, 0.000115000003
   3458, 0.000194499997, 0.000119999997
   3459, 0.000194499997, 0.000125000006
   3460, 0.000194499997,      0.00013
   3461, 0.000194499997, 0.000134999995
   3462, 0.000194499997, 0.000140000004
   3463, 0.000194499997, 0.000144999998
   3464, 0.000194499997, 0.000150000007
   3465, 0.000194499997, 0.000155000002
   3466, 0.000194499997, 0.000159999996
   3467, 0.000194499997, 0.000165000005
   3468, 0.000194499997, 0.000169999999
   3469, 0.000194499997, 0.000174999994
   3470, 0.000194499997, 0.000180000003
   3471, 0.000194499997, 0.000184999997
   3472, 0.000194499997, 0.000190000006
   3473, 0.000194499997, 0.000195000001
   3474,     0.000193, 4.99999987e-06
   3475,     0.000193, 9.99999975e-06
   3476,     0.000193, 1.49999996e-05
   3477,     0.000193, 1.99999995e-05
   3478,     0.000193, 2.49999994e-05
   3479,     0.000193, 2.99999992e-05
   3480,     0.000193, 3.50000009e-05
   3481,     0.000193, 3.9999999e-05
   3482,     0.000193, 4.50000007e-05
   3483,     0.000193, 4.99999987e-05
   3484,     0.000193, 5.50000004e-05
   3485,     0.000193, 5.99999985e-05
   3486,     0.000193, 6.50000002e-05
   3487,     0.000193, 7.00000019e-05
   3488,     0.000193, 7.50000036e-05
   3489,     0.000193, 7.9999998e-05
   3490,     0.000193, 8.49999997e-05
   3491,     0.000193, 9.00000014e-05
   3492,     0.000193, 9.50000031e-05
   3493,     0.000193, 9.99999975e-05
   3494,     0.000193, 0.000104999999
   3495,     0.000193, 0.000110000001
   3496,     0.000193, 0.000115000003
   3497,     0.000193, 0.000119999997
   3498,     0.000193, 0.000125000006
   3499,     0.000193,      0.00013
   3500,     0.000193, 0.000134999995
   3501,     0.000193, 0.000140000004
   3502,     0.000193, 0.000144999998
   3503,     0.000193, 0.000150000007
   3504,     0.000193, 0.000155000002
   3505,     0.000193, 0.000159999996
   3506,     0.000193, 0.000165000005
   3507,     0.000193, 0.000169999999
   3508,     0.000193, 0.000174999994
   3509,     0.000193, 0.000180000003
   3510,     0.000193, 0.000184999997
   3511,     0.000193, 0.000190000006
   3512,     0.000193, 0.000195000001
   3513, 0.000191500003, 4.99999987e-06
   3514, 0.000191500003, 9.99999975e-06
   3515, 0.000191500003, 1.49999996e-05
   3516, 0.000191500003, 1.99999995e-05
   3517, 0.000191500003, 2.49999994e-05
   3518, 0.000191500003, 2.99999992e-05
   3519, 0.000191500003, 3.50000009e-05
   3520, 0.000191500003, 3.9999999e-05
   3521, 0.000191500003, 4.50000007e-05
   3522, 0.000191500003, 4.99999987e-05
   3523, 0.000191500003, 5.50000004e-05
   3524, 0.000191500003, 5.99999985e-05
   3525, 0.000191500003, 6.50000002e-05
   3526, 0.000191500003, 7.00000019e-05
   3527, 0.000191500003, 7.50000036e-05
   3528, 0.000191500003, 7.9999998e-05
   3529, 0.000191500003, 8.49999997e-05
   3530, 0.000191500003, 9.00000014e-05
   3531, 0.000191500003, 9.50000031e-05
   3532, 0.000191500003, 9.99999975e-05
   3533, 0.000191500003, 0.000104999999
   3534, 0.000191500003, 0.000110000001
   3535, 0.000191500003, 0.000115000003
   3536, 0.000191500003, 0.000119999997
   3537, 0.000191500003, 0.000125000006
   3538, 0.000191500003,      0.00013
   3539, 0.000191500003, 0.000134999995
   3540, 0.000191500003, 0.000140000004
   3541, 0.000191500003, 0.000144999998
   3542, 0.000191500003, 0.000150000007
   3543, 0.000191500003, 0.000155000002
   3544, 0.000191500003, 0.000159999996
   3545, 0.000191500003, 0.000165000005
   3546, 0.000191500003, 0.000169999999
   3547, 0.000191500003, 0.000174999994
   3548, 0.000191500003, 0.000180000003
   3549, 0.000191500003, 0.000184999997
   3550, 0.000191500003, 0.000190000006
   3551, 0.000191500003, 0.000195000001
   3552, 0.000184999997, 4.99999987e-06
   3553, 0.000184999997, 9.99999975e-06
   3554, 0.000184999997, 1.49999996e-05
   3555, 0.000184999997, 1.99999995e-05
   3556, 0.000184999997, 2.49999994e-05
   3557, 0.000184999997, 2.99999992e-05
   3558, 0.000184999997, 3.50000009e-05
   3559, 0.000184999997, 3.9999999e-05
   3560, 0.000184999997, 4.50000007e-05
   3561, 0.000184999997, 4.99999987e-05
   3562, 0.000184999997, 5.50000004e-05
   3563, 0.000184999997, 5.99999985e-05
   3564, 0.000184999997, 6.50000002e-05
   3565, 0.000184999997, 7.00000019e-05
   3566, 0.000184999997, 7.50000036e-05
   3567, 0.000184999997, 7.9999998e-05
   3568, 0.000184999997, 8.49999997e-05
   3569, 0.000184999997, 9.00000014e-05
   3570, 0.000184999997, 9.50000031e-05
   3571, 0.000184999997, 9.99999975e-05
   3572, 0.000184999997, 0.000104999999
   3573, 0.000184999997, 0.000110000001
   3574, 0.000184999997, 0.000115000003
   3575, 0.000184999997, 0.000119999997
   3576, 0.000184999997, 0.000125000006
   3577, 0.000184999997,      0.00013
   3578, 0.000184999997, 0.000134999995
   3579, 0.000184999997, 0.000140000004
   3580, 0.000184999997, 0.000144999998
   3581, 0.000184999997, 0.000150000007
   3582, 0.000184999997, 0.000155000002
   3583, 0.000184999997, 0.000159999996
   3584, 0.000184999997, 0.000165000005
   3585, 0.000184999997, 0.000169999999
   3586, 0.000184999997, 0.000174999994
   3587, 0.000184999997, 0.000180000003
   3588, 0.000184999997, 0.000184999997
   3589, 0.000184999997, 0.000190000006
   3590, 0.000184999997, 0.000195000001
   3591, 0.000180000003, 4.99999987e-06
   3592, 0.000180000003, 9.99999975e-06
   3593, 0.000180000003, 1.49999996e-05
   3594, 0.000180000003, 1.99999995e-05
   3595, 0.000180000003, 2.49999994e-05
   3596, 0.000180000003, 2.99999992e-05
   3597, 0.000180000003, 3.50000009e-05
   3598, 0.000180000003, 3.9999999e-05
   3599, 0.000180000003, 4.50000007e-05
   3600, 0.000180000003, 4.99999987e-05
   3601, 0.000180000003, 5.50000004e-05
   3602, 0.000180000003, 5.99999985e-05
   3603, 0.000180000003, 6.50000002e-05
   3604, 0.000180000003, 7.00000019e-05
   3605, 0.000180000003, 7.50000036e-05
   3606, 0.000180000003, 7.9999998e-05
   3607, 0.000180000003, 8.49999997e-05
   3608, 0.000180000003, 9.00000014e-05
   3609, 0.000180000003, 9.50000031e-05
   3610, 0.000180000003, 9.99999975e-05
   3611, 0.000180000003, 0.000104999999
   3612, 0.000180000003, 0.000110000001
   3613, 0.000180000003, 0.000115000003
   3614, 0.000180000003, 0.000119999997
   3615, 0.000180000003, 0.000125000006
   3616, 0.000180000003,      0.00013
   3617, 0.000180000003, 0.000134999995
   3618, 0.000180000003, 0.000140000004
   3619, 0.000180000003, 0.000144999998
   3620, 0.000180000003, 0.000150000007
   3621, 0.000180000003, 0.000155000002
   3622, 0.000180000003, 0.000159999996
   3623, 0.000180000003, 0.000165000005
   3624, 0.000180000003, 0.000169999999
   3625, 0.000180000003, 0.000174999994
   3626, 0.000180000003, 0.000180000003
   3627, 0.000180000003, 0.000184999997
   3628, 0.000180000003, 0.000190000006
   3629, 0.000180000003, 0.000195000001
   3630, 0.000174999994, 4.99999987e-06
   3631, 0.000174999994, 9.99999975e-06
   3632, 0.000174999994, 1.49999996e-05
   3633, 0.000174999994, 1.99999995e-05
   3634, 0.000174999994, 2.49999994e-05
   3635, 0.000174999994, 2.99999992e-05
   3636, 0.000174999994, 3.50000009e-05
   3637, 0.000174999994, 3.9999999e-05
   3638, 0.000174999994, 4.50000007e-05
   3639, 0.000174999994, 4.99999987e-05
   3640, 0.000174999994, 5.50000004e-05
   3641, 0.000174999994, 5.99999985e-05
   3642, 0.000174999994, 6.50000002e-05
   3643, 0.000174999994, 7.00000019e-05
   3644, 0.000174999994, 7.50000036e-05
   3645, 0.000174999994, 7.9999998e-05
   3646, 0.000174999994, 8.49999997e-05
   3647, 0.000174999994, 9.00000014e-05
   3648, 0.000174999994, 9.50000031e-05
   3649, 0.000174999994, 9.99999975e-05
   3650, 0.000174999994, 0.000104999999
   3651, 0.000174999994, 0.000110000001
   3652, 0.000174999994, 0.000115000003
   3653, 0.000174999994, 0.000119999997
   3654, 0.000174999994, 0.000125000006
   3655, 0.000174999994,      0.00013
   3656, 0.000174999994, 0.000134999995
   3657, 0.000174999994, 0.000140000004
   3658, 0.000174999994, 0.000144999998
   3659, 0.000174999994, 0.000150000007
   3660, 0.000174999994, 0.000155000002
   3661, 0.000174999994, 0.000159999996
   3662, 0.000174999994, 0.000165000005
   3663, 0.000174999994, 0.000169999999
   3664, 0.000174999994, 0.000174999994
   3665, 0.000174999994, 0.000180000003
   3666, 0.000174999994, 0.000184999997
   3667, 0.000174999994, 0.000190000006
   3668, 0.000174999994, 0.000195000001
   3669, 0.000169999999, 4.99999987e-06
   3670, 0.000169999999, 9.99999975e-06
   3671, 0.000169999999, 1.49999996e-05
   3672, 0.000169999999, 1.99999995e-05
   3673, 0.000169999999, 2.49999994e-05
   3674, 0.000169999999, 2.99999992e-05
   3675, 0.000169999999, 3.50000009e-05
   3676, 0.000169999999, 3.9999999e-05
   3677, 0.000169999999, 4.50000007e-05
   3678, 0.000169999999, 4.99999987e-05
   3679, 0.000169999999, 5.50000004e-05
   3680, 0.000169999999, 5.99999985e-05
   3681, 0.000169999999, 6.50000002e-05
   3682, 0.000169999999, 7.00000019e-05
   3683, 0.000169999999, 7.50000036e-05
   3684, 0.000169999999, 7.9999998e-05
   3685, 0.000169999999, 8.49999997e-05
   3686, 0.000169999999, 9.00000014e-05
   3687, 0.000169999999, 9.50000031e-05
   3688, 0.000169999999, 9.99999975e-05
   3689, 0.000169999999, 0.000104999999
   3690, 0.000169999999, 0.000110000001
   3691, 0.000169999999, 0.000115000003
   3692, 0.000169999999, 0.000119999997
   3693, 0.000169999999, 0.000125000006
   3694, 0.000169999999,      0.00013
   3695, 0.000169999999, 0.000134999995
   3696, 0.000169999999, 0.000140000004
   3697, 0.000169999999, 0.000144999998
   3698, 0.000169999999, 0.000150000007
   3699, 0.000169999999, 0.000155000002
   3700, 0.000169999999, 0.000159999996
   3701, 0.000169999999, 0.000165000005
   3702, 0.000169999999, 0.000169999999
   3703, 0.000169999999, 0.000174999994
   3704, 0.000169999999, 0.000180000003
   3705, 0.000169999999, 0.000184999997
   3706, 0.000169999999, 0.000190000006
   3707, 0.000169999999, 0.000195000001
   3708, 0.000165000005, 4.99999987e-06
   3709, 0.000165000005, 9.99999975e-06
   3710, 0.000165000005, 1.49999996e-05
   3711, 0.000165000005, 1.99999995e-05
   3712, 0.000165000005, 2.49999994e-05
   3713, 0.000165000005, 2.99999992e-05
   3714, 0.000165000005, 3.50000009e-05
   3715, 0.000165000005, 3.9999999e-05
   3716, 0.000165000005, 4.50000007e-05
   3717, 0.000165000005, 4.99999987e-05
   3718, 0.000165000005, 5.50000004e-05
   3719, 0.000165000005, 5.99999985e-05
   3720, 0.000165000005, 6.50000002e-05
   3721, 0.000165000005, 7.00000019e-05
   3722, 0.000165000005, 7.50000036e-05
   3723, 0.000165000005, 7.9999998e-05
   3724, 0.000165000005, 8.49999997e-05
   3725, 0.000165000005, 9.00000014e-05
   3726, 0.000165000005, 9.50000031e-05
   3727, 0.000165000005, 9.99999975e-05
   3728, 0.000165000005, 0.000104999999
   3729, 0.000165000005, 0.000110000001
   3730, 0.000165000005, 0.000115000003
   3731, 0.000165000005, 0.000119999997
   3732, 0.000165000005, 0.000125000006
   3733, 0.000165000005,      0.00013
   3734, 0.000165000005, 0.000134999995
   3735, 0.000165000005, 0.000140000004
   3736, 0.000165000005, 0.000144999998
   3737, 0.000165000005, 0.000150000007
   3738, 0.000165000005, 0.000155000002
   3739, 0.000165000005, 0.000159999996
   3740, 0.000165000005, 0.000165000005
   3741, 0.000165000005, 0.000169999999
   3742, 0.000165000005, 0.000174999994
   3743, 0.000165000005, 0.000180000003
   3744, 0.000165000005, 0.000184999997
   3745, 0.000165000005, 0.000190000006
   3746, 0.000165000005, 0.000195000001
   3747, 0.000159999996, 4.99999987e-06
   3748, 0.000159999996, 9.99999975e-06
   3749, 0.000159999996, 1.49999996e-05
   3750, 0.000159999996, 1.99999995e-05
   3751, 0.000159999996, 2.49999994e-05
   3752, 0.000159999996, 2.99999992e-05
   3753, 0.000159999996, 3.50000009e-05
   3754, 0.000159999996, 3.9999999e-05
   3755, 0.000159999996, 4.50000007e-05
   3756, 0.000159999996, 4.99999987e-05
   3757, 0.000159999996, 5.50000004e-05
   3758, 0.000159999996, 5.99999985e-05
   3759, 0.000159999996, 6.50000002e-05
   3760, 0.000159999996, 7.00000019e-05
   3761, 0.000159999996, 7.50000036e-05
   3762, 0.000159999996, 7.9999998e-05
   3763, 0.000159999996, 8.49999997e-05
   3764, 0.000159999996, 9.00000014e-05
   3765, 0.000159999996, 9.50000031e-05
   3766, 0.000159999996, 9.99999975e-05
   3767, 0.000159999996, 0.000104999999
   3768, 0.000159999996, 0.000110000001
   3769, 0.000159999996, 0.000115000003
   3770, 0.000159999996, 0.000119999997
   3771, 0.000159999996, 0.000125000006
   3772, 0.000159999996,      0.00013
   3773, 0.000159999996, 0.000134999995
   3774, 0.000159999996, 0.000140000004
   3775, 0.000159999996, 0.000144999998
   3776, 0.000159999996, 0.000150000007
   3777, 0.000159999996, 0.000155000002
   3778, 0.000159999996, 0.000159999996
   3779, 0.000159999996, 0.000165000005
   3780, 0.000159999996, 0.000169999999
   3781, 0.000159999996, 0.000174999994
   3782, 0.000159999996, 0.000180000003
   3783, 0.000159999996, 0.000184999997
   3784, 0.000159999996, 0.000190000006
   3785, 0.000159999996, 0.000195000001
   3786, 0.000155000002, 4.99999987e-06
   3787, 0.000155000002, 9.99999975e-06
   3788, 0.000155000002, 1.49999996e-05
   3789, 0.000155000002, 1.99999995e-05
   3790, 0.000155000002, 2.49999994e-05
   3791, 0.000155000002, 2.99999992e-05
   3792, 0.000155000002, 3.50000009e-05
   3793, 0.000155000002, 3.9999999e-05
   3794, 0.000155000002, 4.50000007e-05
   3795, 0.000155000002, 4.99999987e-05
   3796, 0.000155000002, 5.50000004e-05
   3797, 0.000155000002, 5.99999985e-05
   3798, 0.000155000002, 6.50000002e-05
   3799, 0.000155000002, 7.00000019e-05
   3800, 0.000155000002, 7.50000036e-05
   3801, 0.000155000002, 7.9999998e-05
   3802, 0.000155000002, 8.49999997e-05
   3803, 0.000155000002, 9.00000014e-05
   3804, 0.000155000002, 9.50000031e-05
   3805, 0.000155000002, 9.99999975e-05
   3806, 0.000155000002, 0.000104999999
   3807, 0.000155000002, 0.000110000001
   3808, 0.000155000002, 0.000115000003
   3809, 0.000155000002, 0.000119999997
   3810, 0.000155000002, 0.000125000006
   3811, 0.000155000002,      0.00013
   3812, 0.000155000002, 0.000134999995
   3813, 0.000155000002, 0.000140000004
   3814, 0.000155000002, 0.000144999998
   3815, 0.000155000002, 0.000150000007
   3816, 0.000155000002, 0.000155000002
   3817, 0.000155000002, 0.000159999996
   3818, 0.000155000002, 0.000165000005
   3819, 0.000155000002, 0.000169999999
   3820, 0.000155000002, 0.000174999994
   3821, 0.000155000002, 0.000180000003
   3822, 0.000155000002, 0.000184999997
   3823, 0.000155000002, 0.000190000006
   3824, 0.000155000002, 0.000195000001
   3825, 0.000150000007, 4.99999987e-06
   3826, 0.000150000007, 9.99999975e-06
   3827, 0.000150000007, 1.49999996e-05
   3828, 0.000150000007, 1.99999995e-05
   3829, 0.000150000007, 2.49999994e-05
   3830, 0.000150000007, 2.99999992e-05
   3831, 0.000150000007, 3.50000009e-05
   3832, 0.000150000007, 3.9999999e-05
   3833, 0.000150000007, 4.50000007e-05
   3834, 0.000150000007, 4.99999987e-05
   3835, 0.000150000007, 5.50000004e-05
   3836, 0.000150000007, 5.99999985e-05
   3837, 0.000150000007, 6.50000002e-05
   3838, 0.000150000007, 7.00000019e-05
   3839, 0.000150000007, 7.50000036e-05
   3840, 0.000150000007, 7.9999998e-05
   3841, 0.000150000007, 8.49999997e-05
   3842, 0.000150000007, 9.00000014e-05
   3843, 0.000150000007, 9.50000031e-05
   3844, 0.000150000007, 9.99999975e-05
   3845, 0.000150000007, 0.000104999999
   3846, 0.000150000007, 0.000110000001
   3847, 0.000150000007, 0.000115000003
   3848, 0.000150000007, 0.000119999997
   3849, 0.000150000007, 0.000125000006
   3850, 0.000150000007,      0.00013
   3851, 0.000150000007, 0.000134999995
   3852, 0.000150000007, 0.000140000004
   3853, 0.000150000007, 0.000144999998
   3854, 0.000150000007, 0.000150000007
   3855, 0.000150000007, 0.000155000002
   3856, 0.000150000007, 0.000159999996
   3857, 0.000150000007, 0.000165000005
   3858, 0.000150000007, 0.000169999999
   3859, 0.000150000007, 0.000174999994
   3860, 0.000150000007, 0.000180000003
   3861, 0.000150000007, 0.000184999997
   3862, 0.000150000007, 0.000190000006
   3863, 0.000150000007, 0.000195000001
   3864, 0.000144999998, 4.99999987e-06
   3865, 0.000144999998, 9.99999975e-06
   3866, 0.000144999998, 1.49999996e-05
   3867, 0.000144999998, 1.99999995e-05
   3868, 0.000144999998, 2.49999994e-05
   3869, 0.000144999998, 2.99999992e-05
   3870, 0.000144999998, 3.50000009e-05
   3871, 0.000144999998, 3.9999999e-05
   3872, 0.000144999998, 4.50000007e-05
   3873, 0.000144999998, 4.99999987e-05
   3874, 0.000144999998, 5.50000004e-05
   3875, 0.000144999998, 5.99999985e-05
   3876, 0.000144999998, 6.50000002e-05
   3877, 0.000144999998, 7.00000019e-05
   3878, 0.000144999998, 7.50000036e-05
   3879, 0.000144999998, 7.9999998e-05
   3880, 0.000144999998, 8.49999997e-05
   3881, 0.000144999998, 9.00000014e-05
   3882, 0.000144999998, 9.50000031e-05
   3883, 0.000144999998, 9.99999975e-05
   3884, 0.000144999998, 0.000104999999
   3885, 0.000144999998, 0.000110000001
   3886, 0.000144999998, 0.000115000003
   3887, 0.000144999998, 0.000119999997
   3888, 0.000144999998, 0.000125000006
   3889, 0.000144999998,      0.00013
   3890, 0.000144999998, 0.000134999995
   3891, 0.000144999998, 0.000140000004
   3892, 0.000144999998, 0.000144999998
   3893, 0.000144999998, 0.000150000007
   3894, 0.000144999998, 0.000155000002
   3895, 0.000144999998, 0.000159999996
   3896, 0.000144999998, 0.000165000005
   3897, 0.000144999998, 0.000169999999
   3898, 0.000144999998, 0.000174999994
   3899, 0.000144999998, 0.000180000003
   3900, 0.000144999998, 0.000184999997
   3901, 0.000144999998, 0.000190000006
   3902, 0.000144999998, 0.000195000001
   3903, 0.000140000004, 4.99999987e-06
   3904, 0.000140000004, 9.99999975e-06
   3905, 0.000140000004, 1.49999996e-05
   3906, 0.000140000004, 1.99999995e-05
   3907, 0.000140000004, 2.49999994e-05
   3908, 0.000140000004, 2.99999992e-05
   3909, 0.000140000004, 3.50000009e-05
   3910, 0.000140000004, 3.9999999e-05
   3911, 0.000140000004, 4.50000007e-05
   3912, 0.000140000004, 4.99999987e-05
   3913, 0.000140000004, 5.50000004e-05
   3914, 0.000140000004, 5.99999985e-05
   3915, 0.000140000004, 6.50000002e-05
   3916, 0.000140000004, 7.00000019e-05
   3917, 0.000140000004, 7.50000036e-05
   3918, 0.000140000004, 7.9999998e-05
   3919, 0.000140000004, 8.49999997e-05
   3920, 0.000140000004, 9.00000014e-05
   3921, 0.000140000004, 9.50000031e-05
   3922, 0.000140000004, 9.99999975e-05
   3923, 0.000140000004, 0.000104999999
   3924, 0.000140000004, 0.000110000001
   3925, 0.000140000004, 0.000115000003
   3926, 0.000140000004, 0.000119999997
   3927, 0.000140000004, 0.000125000006
   3928, 0.000140000004,      0.00013
   3929, 0.000140000004, 0.000134999995
   3930, 0.000140000004, 0.000140000004
   3931, 0.000140000004, 0.000144999998
   3932, 0.000140000004, 0.000150000007
   3933, 0.000140000004, 0.000155000002
   3934, 0.000140000004, 0.000159999996
   3935, 0.000140000004, 0.000165000005
   3936, 0.000140000004, 0.000169999999
   3937, 0.000140000004, 0.000174999994
   3938, 0.000140000004, 0.000180000003
   3939, 0.000140000004, 0.000184999997
   3940, 0.000140000004, 0.000190000006
   3941, 0.000140000004, 0.000195000001
   3942, 0.000134999995, 4.99999987e-06
   3943, 0.000134999995, 9.99999975e-06
   3944, 0.000134999995, 1.49999996e-05
   3945, 0.000134999995, 1.99999995e-05
   3946, 0.000134999995, 2.49999994e-05
   3947, 0.000134999995, 2.99999992e-05
   3948, 0.000134999995, 3.50000009e-05
   3949, 0.000134999995, 3.9999999e-05
   3950, 0.000134999995, 4.50000007e-05
   3951, 0.000134999995, 4.99999987e-05
   3952, 0.000134999995, 5.50000004e-05
   3953, 0.000134999995, 5.99999985e-05
   3954, 0.000134999995, 6.50000002e-05
   3955, 0.000134999995, 7.00000019e-05
   3956, 0.000134999995, 7.50000036e-05
   3957, 0.000134999995, 7.9999998e-05
   3958, 0.000134999995, 8.49999997e-05
   3959, 0.000134999995, 9.00000014e-05
   3960, 0.000134999995, 9.50000031e-05
   3961, 0.000134999995, 9.99999975e-05
   3962, 0.000134999995, 0.000104999999
   3963, 0.000134999995, 0.000110000001
   3964, 0.000134999995, 0.000115000003
   3965, 0.000134999995, 0.000119999997
   3966, 0.000134999995, 0.000125000006
   3967, 0.000134999995,      0.00013
   3968, 0.000134999995, 0.000134999995
   3969, 0.000134999995, 0.000140000004
   3970, 0.000134999995, 0.000144999998
   3971, 0.000134999995, 0.000150000007
   3972, 0.000134999995, 0.000155000002
   3973, 0.000134999995, 0.000159999996
   3974, 0.000134999995, 0.000165000005
   3975, 0.000134999995, 0.000169999999
   3976, 0.000134999995, 0.000174999994
   3977, 0.000134999995, 0.000180000003
   3978, 0.000134999995, 0.000184999997
   3979, 0.000134999995, 0.000190000006
   3980, 0.000134999995, 0.000195000001
   3981,      0.00013, 4.99999987e-06
   3982,      0.00013, 9.99999975e-06
   3983,      0.00013, 1.49999996e-05
   3984,      0.00013, 1.99999995e-05
   3985,      0.00013, 2.49999994e-05
   3986,      0.00013, 2.99999992e-05
   3987,      0.00013, 3.50000009e-05
   3988,      0.00013, 3.9999999e-05
   3989,      0.00013, 4.50000007e-05
   3990,      0.00013, 4.99999987e-05
   3991,      0.00013, 5.50000004e-05
   3992,      0.00013, 5.99999985e-05
   3993,      0.00013, 6.50000002e-05
   3994,      0.00013, 7.00000019e-05
   3995,      0.00013, 7.50000036e-05
   3996,      0.00013, 7.9999998e-05
   3997,      0.00013, 8.49999997e-05
   3998,      0.00013, 9.00000014e-05
   3999,      0.00013, 9.50000031e-05
   4000,      0.00013, 9.99999975e-05
   4001,      0.00013, 0.000104999999
   4002,      0.00013, 0.000110000001
   4003,      0.00013, 0.000115000003
   4004,      0.00013, 0.000119999997
   4005,      0.00013, 0.000125000006
   4006,      0.00013,      0.00013
   4007,      0.00013, 0.000134999995
   4008,      0.00013, 0.000140000004
   4009,      0.00013, 0.000144999998
   4010,      0.00013, 0.000150000007
   4011,      0.00013, 0.000155000002
   4012,      0.00013, 0.000159999996
   4013,      0.00013, 0.000165000005
   4014,      0.00013, 0.000169999999
   4015,      0.00013, 0.000174999994
   4016,      0.00013, 0.000180000003
   4017,      0.00013, 0.000184999997
   4018,      0.00013, 0.000190000006
   4019,      0.00013, 0.000195000001
   4020, 0.000125000006, 4.99999987e-06
   4021, 0.000125000006, 9.99999975e-06
   4022, 0.000125000006, 1.49999996e-05
   4023, 0.000125000006, 1.99999995e-05
   4024, 0.000125000006, 2.49999994e-05
   4025, 0.000125000006, 2.99999992e-05
   4026, 0.000125000006, 3.50000009e-05
   4027, 0.000125000006, 3.9999999e-05
   4028, 0.000125000006, 4.50000007e-05
   4029, 0.000125000006, 4.99999987e-05
   4030, 0.000125000006, 5.50000004e-05
   4031, 0.000125000006, 5.99999985e-05
   4032, 0.000125000006, 6.50000002e-05
   4033, 0.000125000006, 7.00000019e-05
   4034, 0.000125000006, 7.50000036e-05
   4035, 0.000125000006, 7.9999998e-05
   4036, 0.000125000006, 8.49999997e-05
   4037, 0.000125000006, 9.00000014e-05
   4038, 0.000125000006, 9.50000031e-05
   4039, 0.000125000006, 9.99999975e-05
   4040, 0.000125000006, 0.000104999999
   4041, 0.000125000006, 0.000110000001
   4042, 0.000125000006, 0.000115000003
   4043, 0.000125000006, 0.000119999997
   4044, 0.000125000006, 0.000125000006
   4045, 0.000125000006,      0.00013
   4046, 0.000125000006, 0.000134999995
   4047, 0.000125000006, 0.000140000004
   4048, 0.000125000006, 0.000144999998
   4049, 0.000125000006, 0.000150000007
   4050, 0.000125000006, 0.000155000002
   4051, 0.000125000006, 0.000159999996
   4052, 0.000125000006, 0.000165000005
   4053, 0.000125000006, 0.000169999999
   4054, 0.000125000006, 0.000174999994
   4055, 0.000125000006, 0.000180000003
   4056, 0.000125000006, 0.000184999997
   4057, 0.000125000006, 0.000190000006
   4058, 0.000125000006, 0.000195000001
   4059, 0.000119999997, 4.99999987e-06
   4060, 0.000119999997, 9.99999975e-06
   4061, 0.000119999997, 1.49999996e-05
   4062, 0.000119999997, 1.99999995e-05
   4063, 0.000119999997, 2.49999994e-05
   4064, 0.000119999997, 2.99999992e-05
   4065, 0.000119999997, 3.50000009e-05
   4066, 0.000119999997, 3.9999999e-05
   4067, 0.000119999997, 4.50000007e-05
   4068, 0.000119999997, 4.99999987e-05
   4069, 0.000119999997, 5.50000004e-05
   4070, 0.000119999997, 5.99999985e-05
   4071, 0.000119999997, 6.50000002e-05
   4072, 0.000119999997, 7.00000019e-05
   4073, 0.000119999997, 7.50000036e-05
   4074, 0.000119999997, 7.9999998e-05
   4075, 0.000119999997, 8.49999997e-05
   4076, 0.000119999997, 9.00000014e-05
   4077, 0.000119999997, 9.50000031e-05
   4078, 0.000119999997, 9.99999975e-05
   4079, 0.000119999997, 0.000104999999
   4080, 0.000119999997, 0.000110000001
   4081, 0.000119999997, 0.000115000003
   4082, 0.000119999997, 0.000119999997
   4083, 0.000119999997, 0.000125000006
   4084, 0.000119999997,      0.00013
   4085, 0.000119999997, 0.000134999995
   4086, 0.000119999997, 0.000140000004
   4087, 0.000119999997, 0.000144999998
   4088, 0.000119999997, 0.000150000007
   4089, 0.000119999997, 0.000155000002
   4090, 0.000119999997, 0.000159999996
   4091, 0.000119999997, 0.000165000005
   4092, 0.000119999997, 0.000169999999
   4093, 0.000119999997, 0.000174999994
   4094, 0.000119999997, 0.000180000003
   4095, 0.000119999997, 0.000184999997
   4096, 0.000119999997, 0.000190000006
   4097, 0.000119999997, 0.000195000001
   4098, 0.000115000003, 4.99999987e-06
   4099, 0.000115000003, 9.99999975e-06
   4100, 0.000115000003, 1.49999996e-05
   4101, 0.000115000003, 1.99999995e-05
   4102, 0.000115000003, 2.49999994e-05
   4103, 0.000115000003, 2.99999992e-05
   4104, 0.000115000003, 3.50000009e-05
   4105, 0.000115000003, 3.9999999e-05
   4106, 0.000115000003, 4.50000007e-05
   4107, 0.000115000003, 4.99999987e-05
   4108, 0.000115000003, 5.50000004e-05
   4109, 0.000115000003, 5.99999985e-05
   4110, 0.000115000003, 6.50000002e-05
   4111, 0.000115000003, 7.00000019e-05
   4112, 0.000115000003, 7.50000036e-05
   4113, 0.000115000003, 7.9999998e-05
   4114, 0.000115000003, 8.49999997e-05
   4115, 0.000115000003, 9.00000014e-05
   4116, 0.000115000003, 9.50000031e-05
   4117, 0.000115000003, 9.99999975e-05
   4118, 0.000115000003, 0.000104999999
   4119, 0.000115000003, 0.000110000001
   4120, 0.000115000003, 0.000115000003
   4121, 0.000115000003, 0.000119999997
   4122, 0.000115000003, 0.000125000006
   4123, 0.000115000003,      0.00013
   4124, 0.000115000003, 0.000134999995
   4125, 0.000115000003, 0.000140000004
   4126, 0.000115000003, 0.000144999998
   4127, 0.000115000003, 0.000150000007
   4128, 0.000115000003, 0.000155000002
   4129, 0.000115000003, 0.000159999996
   4130, 0.000115000003, 0.000165000005
   4131, 0.000115000003, 0.000169999999
   4132, 0.000115000003, 0.000174999994
   4133, 0.000115000003, 0.000180000003
   4134, 0.000115000003, 0.000184999997
   4135, 0.000115000003, 0.000190000006
   4136, 0.000115000003, 0.000195000001
   4137, 0.000110000001, 4.99999987e-06
   4138, 0.000110000001, 9.99999975e-06
   4139, 0.000110000001, 1.49999996e-05
   4140, 0.000110000001, 1.99999995e-05
   4141, 0.000110000001, 2.49999994e-05
   4142, 0.000110000001, 2.99999992e-05
   4143, 0.000110000001, 3.50000009e-05
   4144, 0.000110000001, 3.9999999e-05
   4145, 0.000110000001, 4.50000007e-05
   4146, 0.000110000001, 4.99999987e-05
   4147, 0.000110000001, 5.50000004e-05
   4148, 0.000110000001, 5.99999985e-05
   4149, 0.000110000001, 6.50000002e-05
   4150, 0.000110000001, 7.00000019e-05
   4151, 0.000110000001, 7.50000036e-05
   4152, 0.000110000001, 7.9999998e-05
   4153, 0.000110000001, 8.49999997e-05
   4154, 0.000110000001, 9.00000014e-05
   4155, 0.000110000001, 9.50000031e-05
   4156, 0.000110000001, 9.99999975e-05
   4157, 0.000110000001, 0.000104999999
   4158, 0.000110000001, 0.000110000001
   4159, 0.000110000001, 0.000115000003
   4160, 0.000110000001, 0.000119999997
   4161, 0.000110000001, 0.000125000006
   4162, 0.000110000001,      0.00013
   4163, 0.000110000001, 0.000134999995
   4164, 0.000110000001, 0.000140000004
   4165, 0.000110000001, 0.000144999998
   4166, 0.000110000001, 0.000150000007
   4167, 0.000110000001, 0.000155000002
   4168, 0.000110000001, 0.000159999996
   4169, 0.000110000001, 0.000165000005
   4170, 0.000110000001, 0.000169999999
   4171, 0.000110000001, 0.000174999994
   4172, 0.000110000001, 0.000180000003
   4173, 0.000110000001, 0.000184999997
   4174, 0.000110000001, 0.000190000006
   4175, 0.000110000001, 0.000195000001
   4176, 0.000104999999, 4.99999987e-06
   4177, 0.000104999999, 9.99999975e-06
   4178, 0.000104999999, 1.49999996e-05
   4179, 0.000104999999, 1.99999995e-05
   4180, 0.000104999999, 2.49999994e-05
   4181, 0.000104999999, 2.99999992e-05
   4182, 0.000104999999, 3.50000009e-05
   4183, 0.000104999999, 3.9999999e-05
   4184, 0.000104999999, 4.50000007e-05
   4185, 0.000104999999, 4.99999987e-05
   4186, 0.000104999999, 5.50000004e-05
   4187, 0.000104999999, 5.99999985e-05
   4188, 0.000104999999, 6.50000002e-05
   4189, 0.000104999999, 7.00000019e-05
   4190, 0.000104999999, 7.50000036e-05
   4191, 0.000104999999, 7.9999998e-05
   4192, 0.000104999999, 8.49999997e-05
   4193, 0.000104999999, 9.00000014e-05
   4194, 0.000104999999, 9.50000031e-05
   4195, 0.000104999999, 9.99999975e-05
   4196, 0.000104999999, 0.000104999999
   4197, 0.000104999999, 0.000110000001
   4198, 0.000104999999, 0.000115000003
   4199, 0.000104999999, 0.000119999997
   4200, 0.000104999999, 0.000125000006
   4201, 0.000104999999,      0.00013
   4202, 0.000104999999, 0.000134999995
   4203, 0.000104999999, 0.000140000004
   4204, 0.000104999999, 0.000144999998
   4205, 0.000104999999, 0.000150000007
   4206, 0.000104999999, 0.000155000002
   4207, 0.000104999999, 0.000159999996
   4208, 0.000104999999, 0.000165000005
   4209, 0.000104999999, 0.000169999999
   4210, 0.000104999999, 0.000174999994
   4211, 0.000104999999, 0.000180000003
   4212, 0.000104999999, 0.000184999997
   4213, 0.000104999999, 0.000190000006
   4214, 0.000104999999, 0.000195000001
   4215, 9.99999975e-05, 4.99999987e-06
   4216, 9.99999975e-05, 9.99999975e-06
   4217, 9.99999975e-05, 1.49999996e-05
   4218, 9.99999975e-05, 1.99999995e-05
   4219, 9.99999975e-05, 2.49999994e-05
   4220, 9.99999975e-05, 2.99999992e-05
   4221, 9.99999975e-05, 3.50000009e-05
   4222, 9.99999975e-05, 3.9999999e-05
   4223, 9.99999975e-05, 4.50000007e-05
   4224, 9.99999975e-05, 4.99999987e-05
   4225, 9.99999975e-05, 5.50000004e-05
   4226, 9.99999975e-05, 5.99999985e-05
   4227, 9.99999975e-05, 6.50000002e-05
   4228, 9.99999975e-05, 7.00000019e-05
   4229, 9.99999975e-05, 7.50000036e-05
   4230, 9.99999975e-05, 7.9999998e-05
   4231, 9.99999975e-05, 8.49999997e-05
   4232, 9.99999975e-05, 9.00000014e-05
   4233, 9.99999975e-05, 9.50000031e-05
   4234, 9.99999975e-05, 9.99999975e-05
   4235, 9.99999975e-05, 0.000104999999
   4236, 9.99999975e-05, 0.000110000001
   4237, 9.99999975e-05, 0.000115000003
   4238, 9.99999975e-05, 0.000119999997
   4239, 9.99999975e-05, 0.000125000006
   4240, 9.99999975e-05,      0.00013
   4241, 9.99999975e-05, 0.000134999995
   4242, 9.99999975e-05, 0.000140000004
   4243, 9.99999975e-05, 0.000144999998
   4244, 9.99999975e-05, 0.000150000007
   4245, 9.99999975e-05, 0.000155000002
   4246, 9.99999975e-05, 0.000159999996
   4247, 9.99999975e-05, 0.000165000005
   4248, 9.99999975e-05, 0.000169999999
   4249, 9.99999975e-05, 0.000174999994
   4250, 9.99999975e-05, 0.000180000003
   4251, 9.99999975e-05, 0.000184999997
   4252, 9.99999975e-05, 0.000190000006
   4253, 9.99999975e-05, 0.000195000001
   4254, 9.50000031e-05, 4.99999987e-06
   4255, 9.50000031e-05, 9.99999975e-06
   4256, 9.50000031e-05, 1.49999996e-05
   4257, 9.50000031e-05, 1.99999995e-05
   4258, 9.50000031e-05, 2.49999994e-05
   4259, 9.50000031e-05, 2.99999992e-05
   4260, 9.50000031e-05, 3.50000009e-05
   4261, 9.50000031e-05, 3.9999999e-05
   4262, 9.50000031e-05, 4.50000007e-05
   4263, 9.50000031e-05, 4.99999987e-05
   4264, 9.50000031e-05, 5.50000004e-05
   4265, 9.50000031e-05, 5.99999985e-05
   4266, 9.50000031e-05, 6.50000002e-05
   4267, 9.50000031e-05, 7.00000019e-05
   4268, 9.50000031e-05, 7.50000036e-05
   4269, 9.50000031e-05, 7.9999998e-05
   4270, 9.50000031e-05, 8.49999997e-05
   4271, 9.50000031e-05, 9.00000014e-05
   4272, 9.50000031e-05, 9.50000031e-05
   4273, 9.50000031e-05, 9.99999975e-05
   4274, 9.50000031e-05, 0.000104999999
   4275, 9.50000031e-05, 0.000110000001
   4276, 9.50000031e-05, 0.000115000003
   4277, 9.50000031e-05, 0.000119999997
   4278, 9.50000031e-05, 0.000125000006
   4279, 9.50000031e-05,      0.00013
   4280, 9.50000031e-05, 0.000134999995
   4281, 9.50000031e-05, 0.000140000004
   4282, 9.50000031e-05, 0.000144999998
   4283, 9.50000031e-05, 0.000150000007
   4284, 9.50000031e-05, 0.000155000002
   4285, 9.50000031e-05, 0.000159999996
   4286, 9.50000031e-05, 0.000165000005
   4287, 9.50000031e-05, 0.000169999999
   4288, 9.50000031e-05, 0.000174999994
   4289, 9.50000031e-05, 0.000180000003
   4290, 9.50000031e-05, 0.000184999997
   4291, 9.50000031e-05, 0.000190000006
   4292, 9.50000031e-05, 0.000195000001
   4293, 9.00000014e-05, 4.99999987e-06
   4294, 9.00000014e-05, 9.99999975e-06
   4295, 9.00000014e-05, 1.49999996e-05
   4296, 9.00000014e-05, 1.99999995e-05
   4297, 9.00000014e-05, 2.49999994e-05
   4298, 9.00000014e-05, 2.99999992e-05
   4299, 9.00000014e-05, 3.50000009e-05
   4300, 9.00000014e-05, 3.9999999e-05
   4301, 9.00000014e-05, 4.50000007e-05
   4302, 9.00000014e-05, 4.99999987e-05
   4303, 9.00000014e-05, 5.50000004e-05
   4304, 9.00000014e-05, 5.99999985e-05
   4305, 9.00000014e-05, 6.50000002e-05
   4306, 9.00000014e-05, 7.00000019e-05
   4307, 9.00000014e-05, 7.50000036e-05
   4308, 9.00000014e-05, 7.9999998e-05
   4309, 9.00000014e-05, 8.49999997e-05
   4310, 9.00000014e-05, 9.00000014e-05
   4311, 9.00000014e-05, 9.50000031e-05
   4312, 9.00000014e-05, 9.99999975e-05
   4313, 9.00000014e-05, 0.000104999999
   4314, 9.00000014e-05, 0.000110000001
   4315, 9.00000014e-05, 0.000115000003
   4316, 9.00000014e-05, 0.000119999997
   4317, 9.00000014e-05, 0.000125000006
   4318, 9.00000014e-05,      0.00013
   4319, 9.00000014e-05, 0.000134999995
   4320, 9.00000014e-05, 0.000140000004
   4321, 9.00000014e-05, 0.000144999998
   4322, 9.00000014e-05, 0.000150000007
   4323, 9.00000014e-05, 0.000155000002
   4324, 9.00000014e-05, 0.000159999996
   4325, 9.00000014e-05, 0.000165000005
   4326, 9.00000014e-05, 0.000169999999
   4327, 9.00000014e-05, 0.000174999994
   4328, 9.00000014e-05, 0.000180000003
   4329, 9.00000014e-05, 0.000184999997
   4330, 9.00000014e-05, 0.000190000006
   4331, 9.00000014e-05, 0.000195000001
   4332, 8.49999997e-05, 4.99999987e-06
   4333, 8.49999997e-05, 9.99999975e-06
   4334, 8.49999997e-05, 1.49999996e-05
   4335, 8.49999997e-05, 1.99999995e-05
   4336, 8.49999997e-05, 2.49999994e-05
   4337, 8.49999997e-05, 2.99999992e-05
   4338, 8.49999997e-05, 3.50000009e-05
   4339, 8.49999997e-05, 3.9999999e-05
   4340, 8.49999997e-05, 4.50000007e-05
   4341, 8.49999997e-05, 4.99999987e-05
   4342, 8.49999997e-05, 5.50000004e-05
   4343, 8.49999997e-05, 5.99999985e-05
   4344, 8.49999997e-05, 6.50000002e-05
   4345, 8.49999997e-05, 7.00000019e-05
   4346, 8.49999997e-05, 7.50000036e-05
   4347, 8.49999997e-05, 7.9999998e-05
   4348, 8.49999997e-05, 8.49999997e-05
   4349, 8.49999997e-05, 9.00000014e-05
   4350, 8.49999997e-05, 9.50000031e-05
   4351, 8.49999997e-05, 9.99999975e-05
   4352, 8.49999997e-05, 0.000104999999
   4353, 8.49999997e-05, 0.000110000001
   4354, 8.49999997e-05, 0.000115000003
   4355, 8.49999997e-05, 0.000119999997
   4356, 8.49999997e-05, 0.000125000006
   4357, 8.49999997e-05,      0.00013
   4358, 8.49999997e-05, 0.000134999995
   4359, 8.49999997e-05, 0.000140000004
   4360, 8.49999997e-05, 0.000144999998
   4361, 8.49999997e-05, 0.000150000007
   4362, 8.49999997e-05, 0.000155000002
   4363, 8.49999997e-05, 0.000159999996
   4364, 8.49999997e-05, 0.000165000005
   4365, 8.49999997e-05, 0.000169999999
   4366, 8.49999997e-05, 0.000174999994
   4367, 8.49999997e-05, 0.000180000003
   4368, 8.49999997e-05, 0.000184999997
   4369, 8.49999997e-05, 0.000190000006
   4370, 8.49999997e-05, 0.000195000001
   4371, 7.9999998e-05, 4.99999987e-06
   4372, 7.9999998e-05, 9.99999975e-06
   4373, 7.9999998e-05, 1.49999996e-05
   4374, 7.9999998e-05, 1.99999995e-05
   4375, 7.9999998e-05, 2.49999994e-05
   4376, 7.9999998e-05, 2.99999992e-05
   4377, 7.9999998e-05, 3.50000009e-05
   4378, 7.9999998e-05, 3.9999999e-05
   4379, 7.9999998e-05, 4.50000007e-05
   4380, 7.9999998e-05, 4.99999987e-05
   4381, 7.9999998e-05, 5.50000004e-05
   4382, 7.9999998e-05, 5.99999985e-05
   4383, 7.9999998e-05, 6.50000002e-05
   4384, 7.9999998e-05, 7.00000019e-05
   4385, 7.9999998e-05, 7.50000036e-05
   4386, 7.9999998e-05, 7.9999998e-05
   4387, 7.9999998e-05, 8.49999997e-05
   4388, 7.9999998e-05, 9.00000014e-05
   4389, 7.9999998e-05, 9.50000031e-05
   4390, 7.9999998e-05, 9.99999975e-05
   4391, 7.9999998e-05, 0.000104999999
   4392, 7.9999998e-05, 0.000110000001
   4393, 7.9999998e-05, 0.000115000003
   4394, 7.9999998e-05, 0.000119999997
   4395, 7.9999998e-05, 0.000125000006
   4396, 7.9999998e-05,      0.00013
   4397, 7.9999998e-05, 0.000134999995
   4398, 7.9999998e-05, 0.000140000004
   4399, 7.9999998e-05, 0.000144999998
   4400, 7.9999998e-05, 0.000150000007
   4401, 7.9999998e-05, 0.000155000002
   4402, 7.9999998e-05, 0.000159999996
   4403, 7.9999998e-05, 0.000165000005
   4404, 7.9999998e-05, 0.000169999999
   4405, 7.9999998e-05, 0.000174999994
   4406, 7.9999998e-05, 0.000180000003
   4407, 7.9999998e-05, 0.000184999997
   4408, 7.9999998e-05, 0.000190000006
   4409, 7.9999998e-05, 0.000195000001
   4410, 7.50000036e-05, 4.99999987e-06
   4411, 7.50000036e-05, 9.99999975e-06
   4412, 7.50000036e-05, 1.49999996e-05
   4413, 7.50000036e-05, 1.99999995e-05
   4414, 7.50000036e-05, 2.49999994e-05
   4415, 7.50000036e-05, 2.99999992e-05
   4416, 7.50000036e-05, 3.50000009e-05
   4417, 7.50000036e-05, 3.9999999e-05
   4418, 7.50000036e-05, 4.50000007e-05
   4419, 7.50000036e-05, 4.99999987e-05
   4420, 7.50000036e-05, 5.50000004e-05
   4421, 7.50000036e-05, 5.99999985e-05
   4422, 7.50000036e-05, 6.50000002e-05
   4423, 7.50000036e-05, 7.00000019e-05
   4424, 7.50000036e-05, 7.50000036e-05
   4425, 7.50000036e-05, 7.9999998e-05
   4426, 7.50000036e-05, 8.49999997e-05
   4427, 7.50000036e-05, 9.00000014e-05
   4428, 7.50000036e-05, 9.50000031e-05
   4429, 7.50000036e-05, 9.99999975e-05
   4430, 7.50000036e-05, 0.000104999999
   4431, 7.50000036e-05, 0.000110000001
   4432, 7.50000036e-05, 0.000115000003
   4433, 7.50000036e-05, 0.000119999997
   4434, 7.50000036e-05, 0.000125000006
   4435, 7.50000036e-05,      0.00013
   4436, 7.50000036e-05, 0.000134999995
   4437, 7.50000036e-05, 0.000140000004
   4438, 7.50000036e-05, 0.000144999998
   4439, 7.50000036e-05, 0.000150000007
   4440, 7.50000036e-05, 0.000155000002
   4441, 7.50000036e-05, 0.000159999996
   4442, 7.50000036e-05, 0.000165000005
   4443, 7.50000036e-05, 0.000169999999
   4444, 7.50000036e-05, 0.000174999994
   4445, 7.50000036e-05, 0.000180000003
   4446, 7.50000036e-05, 0.000184999997
   4447, 7.50000036e-05, 0.000190000006
   4448, 7.50000036e-05, 0.000195000001
   4449, 7.00000019e-05, 4.99999987e-06
   4450, 7.00000019e-05, 9.99999975e-06
   4451, 7.00000019e-05, 1.49999996e-05
   4452, 7.00000019e-05, 1.99999995e-05
   4453, 7.00000019e-05, 2.49999994e-05
   4454, 7.00000019e-05, 2.99999992e-05
   4455, 7.00000019e-05, 3.50000009e-05
   4456, 7.00000019e-05, 3.9999999e-05
   4457, 7.00000019e-05, 4.50000007e-05
   4458, 7.00000019e-05, 4.99999987e-05
   4459, 7.00000019e-05, 5.50000004e-05
   4460, 7.00000019e-05, 5.99999985e-05
   4461, 7.00000019e-05, 6.50000002e-05
   4462, 7.00000019e-05, 7.00000019e-05
   4463, 7.00000019e-05, 7.50000036e-05
   4464, 7.00000019e-05, 7.9999998e-05
   4465, 7.00000019e-05, 8.49999997e-05
   4466, 7.00000019e-05, 9.00000014e-05
   4467, 7.00000019e-05, 9.50000031e-05
   4468, 7.00000019e-05, 9.99999975e-05
   4469, 7.00000019e-05, 0.000104999999
   4470, 7.00000019e-05, 0.000110000001
   4471, 7.00000019e-05, 0.000115000003
   4472, 7.00000019e-05, 0.000119999997
   4473, 7.00000019e-05, 0.000125000006
   4474, 7.00000019e-05,      0.00013
   4475, 7.00000019e-05, 0.000134999995
   4476, 7.00000019e-05, 0.000140000004
   4477, 7.00000019e-05, 0.000144999998
   4478, 7.00000019e-05, 0.000150000007
   4479, 7.00000019e-05, 0.000155000002
   4480, 7.00000019e-05, 0.000159999996
   4481, 7.00000019e-05, 0.000165000005
   4482, 7.00000019e-05, 0.000169999999
   4483, 7.00000019e-05, 0.000174999994
   4484, 7.00000019e-05, 0.000180000003
   4485, 7.00000019e-05, 0.000184999997
   4486, 7.00000019e-05, 0.000190000006
   4487, 7.00000019e-05, 0.000195000001
   4488, 6.50000002e-05, 4.99999987e-06
   4489, 6.50000002e-05, 9.99999975e-06
   4490, 6.50000002e-05, 1.49999996e-05
   4491, 6.50000002e-05, 1.99999995e-05
   4492, 6.50000002e-05, 2.49999994e-05
   4493, 6.50000002e-05, 2.99999992e-05
   4494, 6.50000002e-05, 3.50000009e-05
   4495, 6.50000002e-05, 3.9999999e-05
   4496, 6.50000002e-05, 4.50000007e-05
   4497, 6.50000002e-05, 4.99999987e-05
   4498, 6.50000002e-05, 5.50000004e-05
   4499, 6.50000002e-05, 5.99999985e-05
   4500, 6.50000002e-05, 6.50000002e-05
   4501, 6.50000002e-05, 7.00000019e-05
   4502, 6.50000002e-05, 7.50000036e-05
   4503, 6.50000002e-05, 7.9999998e-05
   4504, 6.50000002e-05, 8.49999997e-05
   4505, 6.50000002e-05, 9.00000014e-05
   4506, 6.50000002e-05, 9.50000031e-05
   4507, 6.50000002e-05, 9.99999975e-05
   4508, 6.50000002e-05, 0.000104999999
   4509, 6.50000002e-05, 0.000110000001
   4510, 6.50000002e-05, 0.000115000003
   4511, 6.50000002e-05, 0.000119999997
   4512, 6.50000002e-05, 0.000125000006
   4513, 6.50000002e-05,      0.00013
   4514, 6.50000002e-05, 0.000134999995
   4515, 6.50000002e-05, 0.000140000004
   4516, 6.50000002e-05, 0.000144999998
   4517, 6.50000002e-05, 0.000150000007
   4518, 6.50000002e-05, 0.000155000002
   4519, 6.50000002e-05, 0.000159999996
   4520, 6.50000002e-05, 0.000165000005
   4521, 6.50000002e-05, 0.000169999999
   4522, 6.50000002e-05, 0.000174999994
   4523, 6.50000002e-05, 0.000180000003
   4524, 6.50000002e-05, 0.000184999997
   4525, 6.50000002e-05, 0.000190000006
   4526, 6.50000002e-05, 0.000195000001
   4527, 5.99999985e-05, 4.99999987e-06
   4528, 5.99999985e-05, 9.99999975e-06
   4529, 5.99999985e-05, 1.49999996e-05
   4530, 5.99999985e-05, 1.99999995e-05
   4531, 5.99999985e-05, 2.49999994e-05
   4532, 5.99999985e-05, 2.99999992e-05
   4533, 5.99999985e-05, 3.50000009e-05
   4534, 5.99999985e-05, 3.9999999e-05
   4535, 5.99999985e-05, 4.50000007e-05
   4536, 5.99999985e-05, 4.99999987e-05
   4537, 5.99999985e-05, 5.50000004e-05
   4538, 5.99999985e-05, 5.99999985e-05
   4539, 5.99999985e-05, 6.50000002e-05
   4540, 5.99999985e-05, 7.00000019e-05
   4541, 5.99999985e-05, 7.50000036e-05
   4542, 5.99999985e-05, 7.9999998e-05
   4543, 5.99999985e-05, 8.49999997e-05
   4544, 5.99999985e-05, 9.00000014e-05
   4545, 5.99999985e-05, 9.50000031e-05
   4546, 5.99999985e-05, 9.99999975e-05
   4547, 5.99999985e-05, 0.000104999999
   4548, 5.99999985e-05, 0.000110000001
   4549, 5.99999985e-05, 0.000115000003
   4550, 5.99999985e-05, 0.000119999997
   4551, 5.99999985e-05, 0.000125000006
   4552, 5.99999985e-05,      0.00013
   4553, 5.99999985e-05, 0.000134999995
   4554, 5.99999985e-05, 0.000140000004
   4555, 5.99999985e-05, 0.000144999998
   4556, 5.99999985e-05, 0.000150000007
   4557, 5.99999985e-05, 0.000155000002
   4558, 5.99999985e-05, 0.000159999996
   4559, 5.99999985e-05, 0.000165000005
   4560, 5.99999985e-05, 0.000169999999
   4561, 5.99999985e-05, 0.000174999994
   4562, 5.99999985e-05, 0.000180000003
   4563, 5.99999985e-05, 0.000184999997
   4564, 5.99999985e-05, 0.000190000006
   4565, 5.99999985e-05, 0.000195000001
   4566, 5.50000004e-05, 4.99999987e-06
   4567, 5.50000004e-05, 9.99999975e-06
   4568, 5.50000004e-05, 1.49999996e-05
   4569, 5.50000004e-05, 1.99999995e-05
   4570, 5.50000004e-05, 2.49999994e-05
   4571, 5.50000004e-05, 2.99999992e-05
   4572, 5.50000004e-05, 3.50000009e-05
   4573, 5.50000004e-05, 3.9999999e-05
   4574, 5.50000004e-05, 4.50000007e-05
   4575, 5.50000004e-05, 4.99999987e-05
   4576, 5.50000004e-05, 5.50000004e-05
   4577, 5.50000004e-05, 5.99999985e-05
   4578, 5.50000004e-05, 6.50000002e-05
   4579, 5.50000004e-05, 7.00000019e-05
   4580, 5.50000004e-05, 7.50000036e-05
   4581, 5.50000004e-05, 7.9999998e-05
   4582, 5.50000004e-05, 8.49999997e-05
   4583, 5.50000004e-05, 9.00000014e-05
   4584, 5.50000004e-05, 9.50000031e-05
   4585, 5.50000004e-05, 9.99999975e-05
   4586, 5.50000004e-05, 0.000104999999
   4587, 5.50000004e-05, 0.000110000001
   4588, 5.50000004e-05, 0.000115000003
   4589, 5.50000004e-05, 0.000119999997
   4590, 5.50000004e-05, 0.000125000006
   4591, 5.50000004e-05,      0.00013
   4592, 5.50000004e-05, 0.000134999995
   4593, 5.50000004e-05, 0.000140000004
   4594, 5.50000004e-05, 0.000144999998
   4595, 5.50000004e-05, 0.000150000007
   4596, 5.50000004e-05, 0.000155000002
   4597, 5.50000004e-05, 0.000159999996
   4598, 5.50000004e-05, 0.000165000005
   4599, 5.50000004e-05, 0.000169999999
   4600, 5.50000004e-05, 0.000174999994
   4601, 5.50000004e-05, 0.000180000003
   4602, 5.50000004e-05, 0.000184999997
   4603, 5.50000004e-05, 0.000190000006
   4604, 5.50000004e-05, 0.000195000001
   4605, 4.99999987e-05, 4.99999987e-06
   4606, 4.99999987e-05, 9.99999975e-06
   4607, 4.99999987e-05, 1.49999996e-05
   4608, 4.99999987e-05, 1.99999995e-05
   4609, 4.99999987e-05, 2.49999994e-05
   4610, 4.99999987e-05, 2.99999992e-05
   4611, 4.99999987e-05, 3.50000009e-05
   4612, 4.99999987e-05, 3.9999999e-05
   4613, 4.99999987e-05, 4.50000007e-05
   4614, 4.99999987e-05, 4.99999987e-05
   4615, 4.99999987e-05, 5.50000004e-05
   4616, 4.99999987e-05, 5.99999985e-05
   4617, 4.99999987e-05, 6.50000002e-05
   4618, 4.99999987e-05, 7.00000019e-05
   4619, 4.99999987e-05, 7.50000036e-05
   4620, 4.99999987e-05, 7.9999998e-05
   4621, 4.99999987e-05, 8.49999997e-05
   4622, 4.99999987e-05, 9.00000014e-05
   4623, 4.99999987e-05, 9.50000031e-05
   4624, 4.99999987e-05, 9.99999975e-05
   4625, 4.99999987e-05, 0.000104999999
   4626, 4.99999987e-05, 0.000110000001
   4627, 4.99999987e-05, 0.000115000003
   4628, 4.99999987e-05, 0.000119999997
   4629, 4.99999987e-05, 0.000125000006
   4630, 4.99999987e-05,      0.00013
   4631, 4.99999987e-05, 0.000134999995
   4632, 4.99999987e-05, 0.000140000004
   4633, 4.99999987e-05, 0.000144999998
   4634, 4.99999987e-05, 0.000150000007
   4635, 4.99999987e-05, 0.000155000002
   4636, 4.99999987e-05, 0.000159999996
   4637, 4.99999987e-05, 0.000165000005
   4638, 4.99999987e-05, 0.000169999999
   4639, 4.99999987e-05, 0.000174999994
   4640, 4.99999987e-05, 0.000180000003
   4641, 4.99999987e-05, 0.000184999997
   4642, 4.99999987e-05, 0.000190000006
   4643, 4.99999987e-05, 0.000195000001
   4644, 4.50000007e-05, 4.99999987e-06
   4645, 4.50000007e-05, 9.99999975e-06
   4646, 4.50000007e-05, 1.49999996e-05
   4647, 4.50000007e-05, 1.99999995e-05
   4648, 4.50000007e-05, 2.49999994e-05
   4649, 4.50000007e-05, 2.99999992e-05
   4650, 4.50000007e-05, 3.50000009e-05
   4651, 4.50000007e-05, 3.9999999e-05
   4652, 4.50000007e-05, 4.50000007e-05
   4653, 4.50000007e-05, 4.99999987e-05
   4654, 4.50000007e-05, 5.50000004e-05
   4655, 4.50000007e-05, 5.99999985e-05
   4656, 4.50000007e-05, 6.50000002e-05
   4657, 4.50000007e-05, 7.00000019e-05
   4658, 4.50000007e-05, 7.50000036e-05
   4659, 4.50000007e-05, 7.9999998e-05
   4660, 4.50000007e-05, 8.49999997e-05
   4661, 4.50000007e-05, 9.00000014e-05
   4662, 4.50000007e-05, 9.50000031e-05
   4663, 4.50000007e-05, 9.99999975e-05
   4664, 4.50000007e-05, 0.000104999999
   4665, 4.50000007e-05, 0.000110000001
   4666, 4.50000007e-05, 0.000115000003
   4667, 4.50000007e-05, 0.000119999997
   4668, 4.50000007e-05, 0.000125000006
   4669, 4.50000007e-05,      0.00013
   4670, 4.50000007e-05, 0.000134999995
   4671, 4.50000007e-05, 0.000140000004
   4672, 4.50000007e-05, 0.000144999998
   4673, 4.50000007e-05, 0.000150000007
   4674, 4.50000007e-05, 0.000155000002
   4675, 4.50000007e-05, 0.000159999996
   4676, 4.50000007e-05, 0.000165000005
   4677, 4.50000007e-05, 0.000169999999
   4678, 4.50000007e-05, 0.000174999994
   4679, 4.50000007e-05, 0.000180000003
   4680, 4.50000007e-05, 0.000184999997
   4681, 4.50000007e-05, 0.000190000006
   4682, 4.50000007e-05, 0.000195000001
   4683, 3.9999999e-05, 4.99999987e-06
   4684, 3.9999999e-05, 9.99999975e-06
   4685, 3.9999999e-05, 1.49999996e-05
   4686, 3.9999999e-05, 1.99999995e-05
   4687, 3.9999999e-05, 2.49999994e-05
   4688, 3.9999999e-05, 2.99999992e-05
   4689, 3.9999999e-05, 3.50000009e-05
   4690, 3.9999999e-05, 3.9999999e-05
   4691, 3.9999999e-05, 4.50000007e-05
   4692, 3.9999999e-05, 4.99999987e-05
   4693, 3.9999999e-05, 5.50000004e-05
   4694, 3.9999999e-05, 5.99999985e-05
   4695, 3.9999999e-05, 6.50000002e-05
   4696, 3.9999999e-05, 7.00000019e-05
   4697, 3.9999999e-05, 7.50000036e-05
   4698, 3.9999999e-05, 7.9999998e-05
   4699, 3.9999999e-05, 8.49999997e-05
   4700, 3.9999999e-05, 9.00000014e-05
   4701, 3.9999999e-05, 9.50000031e-05
   4702, 3.9999999e-05, 9.99999975e-05
   4703, 3.9999999e-05, 0.000104999999
   4704, 3.9999999e-05, 0.000110000001
   4705, 3.9999999e-05, 0.000115000003
   4706, 3.9999999e-05, 0.000119999997
   4707, 3.9999999e-05, 0.000125000006
   4708, 3.9999999e-05,      0.00013
   4709, 3.9999999e-05, 0.000134999995
   4710, 3.9999999e-05, 0.000140000004
   4711, 3.9999999e-05, 0.000144999998
   4712, 3.9999999e-05, 0.000150000007
   4713, 3.9999999e-05, 0.000155000002
   4714, 3.9999999e-05, 0.000159999996
   4715, 3.9999999e-05, 0.000165000005
   4716, 3.9999999e-05, 0.000169999999
   4717, 3.9999999e-05, 0.000174999994
   4718, 3.9999999e-05, 0.000180000003
   4719, 3.9999999e-05, 0.000184999997
   4720, 3.9999999e-05, 0.000190000006
   4721, 3.9999999e-05, 0.000195000001
   4722, 3.50000009e-05, 4.99999987e-06
   4723, 3.50000009e-05, 9.99999975e-06
   4724, 3.50000009e-05, 1.49999996e-05
   4725, 3.50000009e-05, 1.99999995e-05
   4726, 3.50000009e-05, 2.49999994e-05
   4727, 3.50000009e-05, 2.99999992e-05
   4728, 3.50000009e-05, 3.50000009e-05
   4729, 3.50000009e-05, 3.9999999e-05
   4730, 3.50000009e-05, 4.50000007e-05
   4731, 3.50000009e-05, 4.99999987e-05
   4732, 3.50000009e-05, 5.50000004e-05
   4733, 3.50000009e-05, 5.99999985e-05
   4734, 3.50000009e-05, 6.50000002e-05
   4735, 3.50000009e-05, 7.00000019e-05
   4736, 3.50000009e-05, 7.50000036e-05
   4737, 3.50000009e-05, 7.9999998e-05
   4738, 3.50000009e-05, 8.49999997e-05
   4739, 3.50000009e-05, 9.00000014e-05
   4740, 3.50000009e-05, 9.50000031e-05
   4741, 3.50000009e-05, 9.99999975e-05
   4742, 3.50000009e-05, 0.000104999999
   4743, 3.50000009e-05, 0.000110000001
   4744, 3.50000009e-05, 0.000115000003
   4745, 3.50000009e-05, 0.000119999997
   4746, 3.50000009e-05, 0.000125000006
   4747, 3.50000009e-05,      0.00013
   4748, 3.50000009e-05, 0.000134999995
   4749, 3.50000009e-05, 0.000140000004
   4750, 3.50000009e-05, 0.000144999998
   4751, 3.50000009e-05, 0.000150000007
   4752, 3.50000009e-05, 0.000155000002
   4753, 3.50000009e-05, 0.000159999996
   4754, 3.50000009e-05, 0.000165000005
   4755, 3.50000009e-05, 0.000169999999
   4756, 3.50000009e-05, 0.000174999994
   4757, 3.50000009e-05, 0.000180000003
   4758, 3.50000009e-05, 0.000184999997
   4759, 3.50000009e-05, 0.000190000006
   4760, 3.50000009e-05, 0.000195000001
   4761, 2.99999992e-05, 4.99999987e-06
   4762, 2.99999992e-05, 9.99999975e-06
   4763, 2.99999992e-05, 1.49999996e-05
   4764, 2.99999992e-05, 1.99999995e-05
   4765, 2.99999992e-05, 2.49999994e-05
   4766, 2.99999992e-05, 2.99999992e-05
   4767, 2.99999992e-05, 3.50000009e-05
   4768, 2.99999992e-05, 3.9999999e-05
   4769, 2.99999992e-05, 4.50000007e-05
   4770, 2.99999992e-05, 4.99999987e-05
   4771, 2.99999992e-05, 5.50000004e-05
   4772, 2.99999992e-05, 5.99999985e-05
   4773, 2.99999992e-05, 6.50000002e-05
   4774, 2.99999992e-05, 7.00000019e-05
   4775, 2.99999992e-05, 7.50000036e-05
   4776, 2.99999992e-05, 7.9999998e-05
   4777, 2.99999992e-05, 8.49999997e-05
   4778, 2.99999992e-05, 9.00000014e-05
   4779, 2.99999992e-05, 9.50000031e-05
   4780, 2.99999992e-05, 9.99999975e-05
   4781, 2.99999992e-05, 0.000104999999
   4782, 2.99999992e-05, 0.000110000001
   4783, 2.99999992e-05, 0.000115000003
   4784, 2.99999992e-05, 0.000119999997
   4785, 2.99999992e-05, 0.000125000006
   4786, 2.99999992e-05,      0.00013
   4787, 2.99999992e-05, 0.000134999995
   4788, 2.99999992e-05, 0.000140000004
   4789, 2.99999992e-05, 0.000144999998
   4790, 2.99999992e-05, 0.000150000007
   4791, 2.99999992e-05, 0.000155000002
   4792, 2.99999992e-05, 0.000159999996
   4793, 2.99999992e-05, 0.000165000005
   4794, 2.99999992e-05, 0.000169999999
   4795, 2.99999992e-05, 0.000174999994
   4796, 2.99999992e-05, 0.000180000003
   4797, 2.99999992e-05, 0.000184999997
   4798, 2.99999992e-05, 0.000190000006
   4799, 2.99999992e-05, 0.000195000001
   4800, 2.49999994e-05, 4.99999987e-06
   4801, 2.49999994e-05, 9.99999975e-06
   4802, 2.49999994e-05, 1.49999996e-05
   4803, 2.49999994e-05, 1.99999995e-05
   4804, 2.49999994e-05, 2.49999994e-05
   4805, 2.49999994e-05, 2.99999992e-05
   4806, 2.49999994e-05, 3.50000009e-05
   4807, 2.49999994e-05, 3.9999999e-05
   4808, 2.49999994e-05, 4.50000007e-05
   4809, 2.49999994e-05, 4.99999987e-05
   4810, 2.49999994e-05, 5.50000004e-05
   4811, 2.49999994e-05, 5.99999985e-05
   4812, 2.49999994e-05, 6.50000002e-05
   4813, 2.49999994e-05, 7.00000019e-05
   4814, 2.49999994e-05, 7.50000036e-05
   4815, 2.49999994e-05, 7.9999998e-05
   4816, 2.49999994e-05, 8.49999997e-05
   4817, 2.49999994e-05, 9.00000014e-05
   4818, 2.49999994e-05, 9.50000031e-05
   4819, 2.49999994e-05, 9.99999975e-05
   4820, 2.49999994e-05, 0.000104999999
   4821, 2.49999994e-05, 0.000110000001
   4822, 2.49999994e-05, 0.000115000003
   4823, 2.49999994e-05, 0.000119999997
   4824, 2.49999994e-05, 0.000125000006
   4825, 2.49999994e-05,      0.00013
   4826, 2.49999994e-05, 0.000134999995
   4827, 2.49999994e-05, 0.000140000004
   4828, 2.49999994e-05, 0.000144999998
   4829, 2.49999994e-05, 0.000150000007
   4830, 2.49999994e-05, 0.000155000002
   4831, 2.49999994e-05, 0.000159999996
   4832, 2.49999994e-05, 0.000165000005
   4833, 2.49999994e-05, 0.000169999999
   4834, 2.49999994e-05, 0.000174999994
   4835, 2.49999994e-05, 0.000180000003
   4836, 2.49999994e-05, 0.000184999997
   4837, 2.49999994e-05, 0.000190000006
   4838, 2.49999994e-05, 0.000195000001
   4839, 1.99999995e-05, 4.99999987e-06
   4840, 1.99999995e-05, 9.99999975e-06
   4841, 1.99999995e-05, 1.49999996e-05
   4842, 1.99999995e-05, 1.99999995e-05
   4843, 1.99999995e-05, 2.49999994e-05
   4844, 1.99999995e-05, 2.99999992e-05
   4845, 1.99999995e-05, 3.50000009e-05
   4846, 1.99999995e-05, 3.9999999e-05
   4847, 1.99999995e-05, 4.50000007e-05
   4848, 1.99999995e-05, 4.99999987e-05
   4849, 1.99999995e-05, 5.50000004e-05
   4850, 1.99999995e-05, 5.99999985e-05
   4851, 1.99999995e-05, 6.50000002e-05
   4852, 1.99999995e-05, 7.00000019e-05
   4853, 1.99999995e-05, 7.50000036e-05
   4854, 1.99999995e-05, 7.9999998e-05
   4855, 1.99999995e-05, 8.49999997e-05
   4856, 1.99999995e-05, 9.00000014e-05
   4857, 1.99999995e-05, 9.50000031e-05
   4858, 1.99999995e-05, 9.99999975e-05
   4859, 1.99999995e-05, 0.000104999999
   4860, 1.99999995e-05, 0.000110000001
   4861, 1.99999995e-05, 0.000115000003
   4862, 1.99999995e-05, 0.000119999997
   4863, 1.99999995e-05, 0.000125000006
   4864, 1.99999995e-05,      0.00013
   4865, 1.99999995e-05, 0.000134999995
   4866, 1.99999995e-05, 0.000140000004
   4867, 1.99999995e-05, 0.000144999998
   4868, 1.99999995e-05, 0.000150000007
   4869, 1.99999995e-05, 0.000155000002
   4870, 1.99999995e-05, 0.000159999996
   4871, 1.99999995e-05, 0.000165000005
   4872, 1.99999995e-05, 0.000169999999
   4873, 1.99999995e-05, 0.000174999994
   4874, 1.99999995e-05, 0.000180000003
   4875, 1.99999995e-05, 0.000184999997
   4876, 1.99999995e-05, 0.000190000006
   4877, 1.99999995e-05, 0.000195000001
   4878, 1.49999996e-05, 4.99999987e-06
   4879, 1.49999996e-05, 9.99999975e-06
   4880, 1.49999996e-05, 1.49999996e-05
   4881, 1.49999996e-05, 1.99999995e-05
   4882, 1.49999996e-05, 2.49999994e-05
   4883, 1.49999996e-05, 2.99999992e-05
   4884, 1.49999996e-05, 3.50000009e-05
   4885, 1.49999996e-05, 3.9999999e-05
   4886, 1.49999996e-05, 4.50000007e-05
   4887, 1.49999996e-05, 4.99999987e-05
   4888, 1.49999996e-05, 5.50000004e-05
   4889, 1.49999996e-05, 5.99999985e-05
   4890, 1.49999996e-05, 6.50000002e-05
   4891, 1.49999996e-05, 7.00000019e-05
   4892, 1.49999996e-05, 7.50000036e-05
   4893, 1.49999996e-05, 7.9999998e-05
   4894, 1.49999996e-05, 8.49999997e-05
   4895, 1.49999996e-05, 9.00000014e-05
   4896, 1.49999996e-05, 9.50000031e-05
   4897, 1.49999996e-05, 9.99999975e-05
   4898, 1.49999996e-05, 0.000104999999
   4899, 1.49999996e-05, 0.000110000001
   4900, 1.49999996e-05, 0.000115000003
   4901, 1.49999996e-05, 0.000119999997
   4902, 1.49999996e-05, 0.000125000006
   4903, 1.49999996e-05,      0.00013
   4904, 1.49999996e-05, 0.000134999995
   4905, 1.49999996e-05, 0.000140000004
   4906, 1.49999996e-05, 0.000144999998
   4907, 1.49999996e-05, 0.000150000007
   4908, 1.49999996e-05, 0.000155000002
   4909, 1.49999996e-05, 0.000159999996
   4910, 1.49999996e-05, 0.000165000005
   4911, 1.49999996e-05, 0.000169999999
   4912, 1.49999996e-05, 0.000174999994
   4913, 1.49999996e-05, 0.000180000003
   4914, 1.49999996e-05, 0.000184999997
   4915, 1.49999996e-05, 0.000190000006
   4916, 1.49999996e-05, 0.000195000001
   4917, 9.99999975e-06, 4.99999987e-06
   4918, 9.99999975e-06, 9.99999975e-06
   4919, 9.99999975e-06, 1.49999996e-05
   4920, 9.99999975e-06, 1.99999995e-05
   4921, 9.99999975e-06, 2.49999994e-05
   4922, 9.99999975e-06, 2.99999992e-05
   4923, 9.99999975e-06, 3.50000009e-05
   4924, 9.99999975e-06, 3.9999999e-05
   4925, 9.99999975e-06, 4.50000007e-05
   4926, 9.99999975e-06, 4.99999987e-05
   4927, 9.99999975e-06, 5.50000004e-05
   4928, 9.99999975e-06, 5.99999985e-05
   4929, 9.99999975e-06, 6.50000002e-05
   4930, 9.99999975e-06, 7.00000019e-05
   4931, 9.99999975e-06, 7.50000036e-05
   4932, 9.99999975e-06, 7.9999998e-05
   4933, 9.99999975e-06, 8.49999997e-05
   4934, 9.99999975e-06, 9.00000014e-05
   4935, 9.99999975e-06, 9.50000031e-05
   4936, 9.99999975e-06, 9.99999975e-05
   4937, 9.99999975e-06, 0.000104999999
   4938, 9.99999975e-06, 0.000110000001
   4939, 9.99999975e-06, 0.000115000003
   4940, 9.99999975e-06, 0.000119999997
   4941, 9.99999975e-06, 0.000125000006
   4942, 9.99999975e-06,      0.00013
   4943, 9.99999975e-06, 0.000134999995
   4944, 9.99999975e-06, 0.000140000004
   4945, 9.99999975e-06, 0.000144999998
   4946, 9.99999975e-06, 0.000150000007
   4947, 9.99999975e-06, 0.000155000002
   4948, 9.99999975e-06, 0.000159999996
   4949, 9.99999975e-06, 0.000165000005
   4950, 9.99999975e-06, 0.000169999999
   4951, 9.99999975e-06, 0.000174999994
   4952, 9.99999975e-06, 0.000180000003
   4953, 9.99999975e-06, 0.000184999997
   4954, 9.99999975e-06, 0.000190000006
   4955, 9.99999975e-06, 0.000195000001
   4956, 4.99999987e-06, 4.99999987e-06
   4957, 4.99999987e-06, 9.99999975e-06
   4958, 4.99999987e-06, 1.49999996e-05
   4959, 4.99999987e-06, 1.99999995e-05
   4960, 4.99999987e-06, 2.49999994e-05
   4961, 4.99999987e-06, 2.99999992e-05
   4962, 4.99999987e-06, 3.50000009e-05
   4963, 4.99999987e-06, 3.9999999e-05
   4964, 4.99999987e-06, 4.50000007e-05
   4965, 4.99999987e-06, 4.99999987e-05
   4966, 4.99999987e-06, 5.50000004e-05
   4967, 4.99999987e-06, 5.99999985e-05
   4968, 4.99999987e-06, 6.50000002e-05
   4969, 4.99999987e-06, 7.00000019e-05
   4970, 4.99999987e-06, 7.50000036e-05
   4971, 4.99999987e-06, 7.9999998e-05
   4972, 4.99999987e-06, 8.49999997e-05
   4973, 4.99999987e-06, 9.00000014e-05
   4974, 4.99999987e-06, 9.50000031e-05
   4975, 4.99999987e-06, 9.99999975e-05
   4976, 4.99999987e-06, 0.000104999999
   4977, 4.99999987e-06, 0.000110000001
   4978, 4.99999987e-06, 0.000115000003
   4979, 4.99999987e-06, 0.000119999997
   4980, 4.99999987e-06, 0.000125000006
   4981, 4.99999987e-06,      0.00013
   4982, 4.99999987e-06, 0.000134999995
   4983, 4.99999987e-06, 0.000140000004
   4984, 4.99999987e-06, 0.000144999998
   4985, 4.99999987e-06, 0.000150000007
   4986, 4.99999987e-06, 0.000155000002
   4987, 4.99999987e-06, 0.000159999996
   4988, 4.99999987e-06, 0.000165000005
   4989, 4.99999987e-06, 0.000169999999
   4990, 4.99999987e-06, 0.000174999994
   4991, 4.99999987e-06, 0.000180000003
   4992, 4.99999987e-06, 0.000184999997
   4993, 4.99999987e-06, 0.000190000006
   4994, 4.99999987e-06, 0.000195000001
   4995, 0.000315000012, 0.000195000001
   4996, 0.000315000012, 0.000190000006
   4997, 0.000315000012, 0.000184999997
   4998, 0.000315000012, 0.000180000003
   4999, 0.000315000012, 0.000174999994
   5000, 0.000315000012, 0.000169999999
   5001, 0.000315000012, 0.000165000005
   5002, 0.000315000012, 0.000159999996
   5003, 0.000315000012, 0.000155000002
   5004, 0.000315000012, 0.000150000007
   5005, 0.000315000012, 0.000144999998
   5006, 0.000315000012, 0.000140000004
   5007, 0.000315000012, 0.000134999995
   5008, 0.000315000012,      0.00013
   5009, 0.000315000012, 0.000125000006
   5010, 0.000315000012, 0.000119999997
   5011, 0.000315000012, 0.000115000003
   5012, 0.000315000012, 0.000110000001
   5013, 0.000315000012, 0.000104999999
   5014, 0.000315000012, 9.99999975e-05
   5015, 0.000315000012, 9.50000031e-05
   5016, 0.000315000012, 9.00000014e-05
   5017, 0.000315000012, 8.49999997e-05
   5018, 0.000315000012, 7.9999998e-05
   5019, 0.000315000012, 7.50000036e-05
   5020, 0.000315000012, 7.00000019e-05
   5021, 0.000315000012, 6.50000002e-05
   5022, 0.000315000012, 5.99999985e-05
   5023, 0.000315000012, 5.50000004e-05
   5024, 0.000315000012, 4.99999987e-05
   5025, 0.000315000012, 4.50000007e-05
   5026, 0.000315000012, 3.9999999e-05
   5027, 0.000315000012, 3.50000009e-05
   5028, 0.000315000012, 2.99999992e-05
   5029, 0.000315000012, 2.49999994e-05
   5030, 0.000315000012, 1.99999995e-05
   5031, 0.000315000012, 1.49999996e-05
   5032, 0.000315000012, 9.99999975e-06
   5033, 0.000315000012, 4.99999987e-06
   5034, 0.000319999992, 0.000195000001
   5035, 0.000319999992, 0.000190000006
   5036, 0.000319999992, 0.000184999997
   5037, 0.000319999992, 0.000180000003
   5038, 0.000319999992, 0.000174999994
   5039, 0.000319999992, 0.000169999999
   5040, 0.000319999992, 0.000165000005
   5041, 0.000319999992, 0.000159999996
   5042, 0.000319999992, 0.000155000002
   5043, 0.000319999992, 0.000150000007
   5044, 0.000319999992, 0.000144999998
   5045, 0.000319999992, 0.000140000004
   5046, 0.000319999992, 0.000134999995
   5047, 0.000319999992,      0.00013
   5048, 0.000319999992, 0.000125000006
   5049, 0.000319999992, 0.000119999997
   5050, 0.000319999992, 0.000115000003
   5051, 0.000319999992, 0.000110000001
   5052, 0.000319999992, 0.000104999999
   5053, 0.000319999992, 9.99999975e-05
   5054, 0.000319999992, 9.50000031e-05
   5055, 0.000319999992, 9.00000014e-05
   5056, 0.000319999992, 8.49999997e-05
   5057, 0.000319999992, 7.9999998e-05
   5058, 0.000319999992, 7.50000036e-05
   5059, 0.000319999992, 7.00000019e-05
   5060, 0.000319999992, 6.50000002e-05
   5061, 0.000319999992, 5.99999985e-05
   5062, 0.000319999992, 5.50000004e-05
   5063, 0.000319999992, 4.99999987e-05
   5064, 0.000319999992, 4.50000007e-05
   5065, 0.000319999992, 3.9999999e-05
   5066, 0.000319999992, 3.50000009e-05
   5067, 0.000319999992, 2.99999992e-05
   5068, 0.000319999992, 2.49999994e-05
   5069, 0.000319999992, 1.99999995e-05
   5070, 0.000319999992, 1.49999996e-05
   5071, 0.000319999992, 9.99999975e-06
   5072, 0.000319999992, 4.99999987e-06
   5073, 0.000325000001, 0.000195000001
   5074, 0.000325000001, 0.000190000006
   5075, 0.000325000001, 0.000184999997
   5076, 0.000325000001, 0.000180000003
   5077, 0.000325000001, 0.000174999994
   5078, 0.000325000001, 0.000169999999
   5079, 0.000325000001, 0.000165000005
   5080, 0.000325000001, 0.000159999996
   5081, 0.000325000001, 0.000155000002
   5082, 0.000325000001, 0.000150000007
   5083, 0.000325000001, 0.000144999998
   5084, 0.000325000001, 0.000140000004
   5085, 0.000325000001, 0.000134999995
   5086, 0.000325000001,      0.00013
   5087, 0.000325000001, 0.000125000006
   5088, 0.000325000001, 0.000119999997
   5089, 0.000325000001, 0.000115000003
   5090, 0.000325000001, 0.000110000001
   5091, 0.000325000001, 0.000104999999
   5092, 0.000325000001, 9.99999975e-05
   5093, 0.000325000001, 9.50000031e-05
   5094, 0.000325000001, 9.00000014e-05
   5095, 0.000325000001, 8.49999997e-05
   5096, 0.000325000001, 7.9999998e-05
   5097, 0.000325000001, 7.50000036e-05
   5098, 0.000325000001, 7.00000019e-05
   5099, 0.000325000001, 6.50000002e-05
   5100, 0.000325000001, 5.99999985e-05
   5101, 0.000325000001, 5.50000004e-05
   5102, 0.000325000001, 4.99999987e-05
   5103, 0.000325000001, 4.50000007e-05
   5104, 0.000325000001, 3.9999999e-05
   5105, 0.000325000001, 3.50000009e-05
   5106, 0.000325000001, 2.99999992e-05
   5107, 0.000325000001, 2.49999994e-05
   5108, 0.000325000001, 1.99999995e-05
   5109, 0.000325000001, 1.49999996e-05
   5110, 0.000325000001, 9.99999975e-06
   5111, 0.000325000001, 4.99999987e-06
   5112, 0.00033000001, 0.000195000001
   5113, 0.00033000001, 0.000190000006
   5114, 0.00033000001, 0.000184999997
   5115, 0.00033000001, 0.000180000003
   5116, 0.00033000001, 0.000174999994
   5117, 0.00033000001, 0.000169999999
   5118, 0.00033000001, 0.000165000005
   5119, 0.00033000001, 0.000159999996
   5120, 0.00033000001, 0.000155000002
   5121, 0.00033000001, 0.000150000007
   5122, 0.00033000001, 0.000144999998
   5123, 0.00033000001, 0.000140000004
   5124, 0.00033000001, 0.000134999995
   5125, 0.00033000001,      0.00013
   5126, 0.00033000001, 0.000125000006
   5127, 0.00033000001, 0.000119999997
   5128, 0.00033000001, 0.000115000003
   5129, 0.00033000001, 0.000110000001
   5130, 0.00033000001, 0.000104999999
   5131, 0.00033000001, 9.99999975e-05
   5132, 0.00033000001, 9.50000031e-05
   5133, 0.00033000001, 9.00000014e-05
   5134, 0.00033000001, 8.49999997e-05
   5135, 0.00033000001, 7.9999998e-05
   5136, 0.00033000001, 7.50000036e-05
   5137, 0.00033000001, 7.00000019e-05
   5138, 0.00033000001, 6.50000002e-05
   5139, 0.00033000001, 5.99999985e-05
   5140, 0.00033000001, 5.50000004e-05
   5141, 0.00033000001, 4.99999987e-05
   5142, 0.00033000001, 4.50000007e-05
   5143, 0.00033000001, 3.9999999e-05
   5144, 0.00033000001, 3.50000009e-05
   5145, 0.00033000001, 2.99999992e-05
   5146, 0.00033000001, 2.49999994e-05
   5147, 0.00033000001, 1.99999995e-05
   5148, 0.00033000001, 1.49999996e-05
   5149, 0.00033000001, 9.99999975e-06
   5150, 0.00033000001, 4.99999987e-06
   5151, 0.00033499999, 0.000195000001
   5152, 0.00033499999, 0.000190000006
   5153, 0.00033499999, 0.000184999997
   5154, 0.00033499999, 0.000180000003
   5155, 0.00033499999, 0.000174999994
   5156, 0.00033499999, 0.000169999999
   5157, 0.00033499999, 0.000165000005
   5158, 0.00033499999, 0.000159999996
   5159, 0.00033499999, 0.000155000002
   5160, 0.00033499999, 0.000150000007
   5161, 0.00033499999, 0.000144999998
   5162, 0.00033499999, 0.000140000004
   5163, 0.00033499999, 0.000134999995
   5164, 0.00033499999,      0.00013
   5165, 0.00033499999, 0.000125000006
   5166, 0.00033499999, 0.000119999997
   5167, 0.00033499999, 0.000115000003
   5168, 0.00033499999, 0.000110000001
   5169, 0.00033499999, 0.000104999999
   5170, 0.00033499999, 9.99999975e-05
   5171, 0.00033499999, 9.50000031e-05
   5172, 0.00033499999, 9.00000014e-05
   5173, 0.00033499999, 8.49999997e-05
   5174, 0.00033499999, 7.9999998e-05
   5175, 0.00033499999, 7.50000036e-05
   5176, 0.00033499999, 7.00000019e-05
   5177, 0.00033499999, 6.50000002e-05
   5178, 0.00033499999, 5.99999985e-05
   5179, 0.00033499999, 5.50000004e-05
   5180, 0.00033499999, 4.99999987e-05
   5181, 0.00033499999, 4.50000007e-05
   5182, 0.00033499999, 3.9999999e-05
   5183, 0.00033499999, 3.50000009e-05
   5184, 0.00033499999, 2.99999992e-05
   5185, 0.00033499999, 2.49999994e-05
   5186, 0.00033499999, 1.99999995e-05
   5187, 0.00033499999, 1.49999996e-05
   5188, 0.00033499999, 9.99999975e-06
   5189, 0.00033499999, 4.99999987e-06
   5190, 0.000339999999, 0.000195000001
   5191, 0.000339999999, 0.000190000006
   5192, 0.000339999999, 0.000184999997
   5193, 0.000339999999, 0.000180000003
   5194, 0.000339999999, 0.000174999994
   5195, 0.000339999999, 0.000169999999
   5196, 0.000339999999, 0.000165000005
   5197, 0.000339999999, 0.000159999996
   5198, 0.000339999999, 0.000155000002
   5199, 0.000339999999, 0.000150000007
   5200, 0.000339999999, 0.000144999998
   5201, 0.000339999999, 0.000140000004
   5202, 0.000339999999, 0.000134999995
   5203, 0.000339999999,      0.00013
   5204, 0.000339999999, 0.000125000006
   5205, 0.000339999999, 0.000119999997
   5206, 0.000339999999, 0.000115000003
   5207, 0.000339999999, 0.000110000001
   5208, 0.000339999999, 0.000104999999
   5209, 0.000339999999, 9.99999975e-05
   5210, 0.000339999999, 9.50000031e-05
   5211, 0.000339999999, 9.00000014e-05
   5212, 0.000339999999, 8.49999997e-05
   5213, 0.000339999999, 7.9999998e-05
   5214, 0.000339999999, 7.50000036e-05
   5215, 0.000339999999, 7.00000019e-05
   5216, 0.000339999999, 6.50000002e-05
   5217, 0.000339999999, 5.99999985e-05
   5218, 0.000339999999, 5.50000004e-05
   5219, 0.000339999999, 4.99999987e-05
   5220, 0.000339999999, 4.50000007e-05
   5221, 0.000339999999, 3.9999999e-05
   5222, 0.000339999999, 3.50000009e-05
   5223, 0.000339999999, 2.99999992e-05
   5224, 0.000339999999, 2.49999994e-05
   5225, 0.000339999999, 1.99999995e-05
   5226, 0.000339999999, 1.49999996e-05
   5227, 0.000339999999, 9.99999975e-06
   5228, 0.000339999999, 4.99999987e-06
   5229, 0.000345000008, 0.000195000001
   5230, 0.000345000008, 0.000190000006
   5231, 0.000345000008, 0.000184999997
   5232, 0.000345000008, 0.000180000003
   5233, 0.000345000008, 0.000174999994
   5234, 0.000345000008, 0.000169999999
   5235, 0.000345000008, 0.000165000005
   5236, 0.000345000008, 0.000159999996
   5237, 0.000345000008, 0.000155000002
   5238, 0.000345000008, 0.000150000007
   5239, 0.000345000008, 0.000144999998
   5240, 0.000345000008, 0.000140000004
   5241, 0.000345000008, 0.000134999995
   5242, 0.000345000008,      0.00013
   5243, 0.000345000008, 0.000125000006
   5244, 0.000345000008, 0.000119999997
   5245, 0.000345000008, 0.000115000003
   5246, 0.000345000008, 0.000110000001
   5247, 0.000345000008, 0.000104999999
   5248, 0.000345000008, 9.99999975e-05
   5249, 0.000345000008, 9.50000031e-05
   5250, 0.000345000008, 9.00000014e-05
   5251, 0.000345000008, 8.49999997e-05
   5252, 0.000345000008, 7.9999998e-05
   5253, 0.000345000008, 7.50000036e-05
   5254, 0.000345000008, 7.00000019e-05
   5255, 0.000345000008, 6.50000002e-05
   5256, 0.000345000008, 5.99999985e-05
   5257, 0.000345000008, 5.50000004e-05
   5258, 0.000345000008, 4.99999987e-05
   5259, 0.000345000008, 4.50000007e-05
   5260, 0.000345000008, 3.9999999e-05
   5261, 0.000345000008, 3.50000009e-05
   5262, 0.000345000008, 2.99999992e-05
   5263, 0.000345000008, 2.49999994e-05
   5264, 0.000345000008, 1.99999995e-05
   5265, 0.000345000008, 1.49999996e-05
   5266, 0.000345000008, 9.99999975e-06
   5267, 0.000345000008, 4.99999987e-06
   5268, 0.000349999988, 0.000195000001
   5269, 0.000349999988, 0.000190000006
   5270, 0.000349999988, 0.000184999997
   5271, 0.000349999988, 0.000180000003
   5272, 0.000349999988, 0.000174999994
   5273, 0.000349999988, 0.000169999999
   5274, 0.000349999988, 0.000165000005
   5275, 0.000349999988, 0.000159999996
   5276, 0.000349999988, 0.000155000002
   5277, 0.000349999988, 0.000150000007
   5278, 0.000349999988, 0.000144999998
   5279, 0.000349999988, 0.000140000004
   5280, 0.000349999988, 0.000134999995
   5281, 0.000349999988,      0.00013
   5282, 0.000349999988, 0.000125000006
   5283, 0.000349999988, 0.000119999997
   5284, 0.000349999988, 0.000115000003
   5285, 0.000349999988, 0.000110000001
   5286, 0.000349999988, 0.000104999999
   5287, 0.000349999988, 9.99999975e-05
   5288, 0.000349999988, 9.50000031e-05
   5289, 0.000349999988, 9.00000014e-05
   5290, 0.000349999988, 8.49999997e-05
   5291, 0.000349999988, 7.9999998e-05
   5292, 0.000349999988, 7.50000036e-05
   5293, 0.000349999988, 7.00000019e-05
   5294, 0.000349999988, 6.50000002e-05
   5295, 0.000349999988, 5.99999985e-05
   5296, 0.000349999988, 5.50000004e-05
   5297, 0.000349999988, 4.99999987e-05
   5298, 0.000349999988, 4.50000007e-05
   5299, 0.000349999988, 3.9999999e-05
   5300, 0.000349999988, 3.50000009e-05
   5301, 0.000349999988, 2.99999992e-05
   5302, 0.000349999988, 2.49999994e-05
   5303, 0.000349999988, 1.99999995e-05
   5304, 0.000349999988, 1.49999996e-05
   5305, 0.000349999988, 9.99999975e-06
   5306, 0.000349999988, 4.99999987e-06
   5307, 0.000354999996, 0.000195000001
   5308, 0.000354999996, 0.000190000006
   5309, 0.000354999996, 0.000184999997
   5310, 0.000354999996, 0.000180000003
   5311, 0.000354999996, 0.000174999994
   5312, 0.000354999996, 0.000169999999
   5313, 0.000354999996, 0.000165000005
   5314, 0.000354999996, 0.000159999996
   5315, 0.000354999996, 0.000155000002
   5316, 0.000354999996, 0.000150000007
   5317, 0.000354999996, 0.000144999998
   5318, 0.000354999996, 0.000140000004
   5319, 0.000354999996, 0.000134999995
   5320, 0.000354999996,      0.00013
   5321, 0.000354999996, 0.000125000006
   5322, 0.000354999996, 0.000119999997
   5323, 0.000354999996, 0.000115000003
   5324, 0.000354999996, 0.000110000001
   5325, 0.000354999996, 0.000104999999
   5326, 0.000354999996, 9.99999975e-05
   5327, 0.000354999996, 9.50000031e-05
   5328, 0.000354999996, 9.00000014e-05
   5329, 0.000354999996, 8.49999997e-05
   5330, 0.000354999996, 7.9999998e-05
   5331, 0.000354999996, 7.50000036e-05
   5332, 0.000354999996, 7.00000019e-05
   5333, 0.000354999996, 6.50000002e-05
   5334, 0.000354999996, 5.99999985e-05
   5335, 0.000354999996, 5.50000004e-05
   5336, 0.000354999996, 4.99999987e-05
   5337, 0.000354999996, 4.50000007e-05
   5338, 0.000354999996, 3.9999999e-05
   5339, 0.000354999996, 3.50000009e-05
   5340, 0.000354999996, 2.99999992e-05
   5341, 0.000354999996, 2.49999994e-05
   5342, 0.000354999996, 1.99999995e-05
   5343, 0.000354999996, 1.49999996e-05
   5344, 0.000354999996, 9.99999975e-06
   5345, 0.000354999996, 4.99999987e-06
   5346, 0.000360000005, 0.000195000001
   5347, 0.000360000005, 0.000190000006
   5348, 0.000360000005, 0.000184999997
   5349, 0.000360000005, 0.000180000003
   5350, 0.000360000005, 0.000174999994
   5351, 0.000360000005, 0.000169999999
   5352, 0.000360000005, 0.000165000005
   5353, 0.000360000005, 0.000159999996
   5354, 0.000360000005, 0.000155000002
   5355, 0.000360000005, 0.000150000007
   5356, 0.000360000005, 0.000144999998
   5357, 0.000360000005, 0.000140000004
   5358, 0.000360000005, 0.000134999995
   5359, 0.000360000005,      0.00013
   5360, 0.000360000005, 0.000125000006
   5361, 0.000360000005, 0.000119999997
   5362, 0.000360000005, 0.000115000003
   5363, 0.000360000005, 0.000110000001
   5364, 0.000360000005, 0.000104999999
   5365, 0.000360000005, 9.99999975e-05
   5366, 0.000360000005, 9.50000031e-05
   5367, 0.000360000005, 9.00000014e-05
   5368, 0.000360000005, 8.49999997e-05
   5369, 0.000360000005, 7.9999998e-05
   5370, 0.000360000005, 7.50000036e-05
   5371, 0.000360000005, 7.00000019e-05
   5372, 0.000360000005, 6.50000002e-05
   5373, 0.000360000005, 5.99999985e-05
   5374, 0.000360000005, 5.50000004e-05
   5375, 0.000360000005, 4.99999987e-05
   5376, 0.000360000005, 4.50000007e-05
   5377, 0.000360000005, 3.9999999e-05
   5378, 0.000360000005, 3.50000009e-05
   5379, 0.000360000005, 2.99999992e-05
   5380, 0.000360000005, 2.49999994e-05
   5381, 0.000360000005, 1.99999995e-05
   5382, 0.000360000005, 1.49999996e-05
   5383, 0.000360000005, 9.99999975e-06
   5384, 0.000360000005, 4.99999987e-06
   5385, 0.000365000014, 0.000195000001
   5386, 0.000365000014, 0.000190000006
   5387, 0.000365000014, 0.000184999997
   5388, 0.000365000014, 0.000180000003
   5389, 0.000365000014, 0.000174999994
   5390, 0.000365000014, 0.000169999999
   5391, 0.000365000014, 0.000165000005
   5392, 0.000365000014, 0.000159999996
   5393, 0.000365000014, 0.000155000002
   5394, 0.000365000014, 0.000150000007
   5395, 0.000365000014, 0.000144999998
   5396, 0.000365000014, 0.000140000004
   5397, 0.000365000014, 0.000134999995
   5398, 0.000365000014,      0.00013
   5399, 0.000365000014, 0.000125000006
   5400, 0.000365000014, 0.000119999997
   5401, 0.000365000014, 0.000115000003
   5402, 0.000365000014, 0.000110000001
   5403, 0.000365000014, 0.000104999999
   5404, 0.000365000014, 9.99999975e-05
   5405, 0.000365000014, 9.50000031e-05
   5406, 0.000365000014, 9.00000014e-05
   5407, 0.000365000014, 8.49999997e-05
   5408, 0.000365000014, 7.9999998e-05
   5409, 0.000365000014, 7.50000036e-05
   5410, 0.000365000014, 7.00000019e-05
   5411, 0.000365000014, 6.50000002e-05
   5412, 0.000365000014, 5.99999985e-05
   5413, 0.000365000014, 5.50000004e-05
   5414, 0.000365000014, 4.99999987e-05
   5415, 0.000365000014, 4.50000007e-05
   5416, 0.000365000014, 3.9999999e-05
   5417, 0.000365000014, 3.50000009e-05
   5418, 0.000365000014, 2.99999992e-05
   5419, 0.000365000014, 2.49999994e-05
   5420, 0.000365000014, 1.99999995e-05
   5421, 0.000365000014, 1.49999996e-05
   5422, 0.000365000014, 9.99999975e-06
   5423, 0.000365000014, 4.99999987e-06
   5424, 0.000369999994, 0.000195000001
   5425, 0.000369999994, 0.000190000006
   5426, 0.000369999994, 0.000184999997
   5427, 0.000369999994, 0.000180000003
   5428, 0.000369999994, 0.000174999994
   5429, 0.000369999994, 0.000169999999
   5430, 0.000369999994, 0.000165000005
   5431, 0.000369999994, 0.000159999996
   5432, 0.000369999994, 0.000155000002
   5433, 0.000369999994, 0.000150000007
   5434, 0.000369999994, 0.000144999998
   5435, 0.000369999994, 0.000140000004
   5436, 0.000369999994, 0.000134999995
   5437, 0.000369999994,      0.00013
   5438, 0.000369999994, 0.000125000006
   5439, 0.000369999994, 0.000119999997
   5440, 0.000369999994, 0.000115000003
   5441, 0.000369999994, 0.000110000001
   5442, 0.000369999994, 0.000104999999
   5443, 0.000369999994, 9.99999975e-05
   5444, 0.000369999994, 9.50000031e-05
   5445, 0.000369999994, 9.00000014e-05
   5446, 0.000369999994, 8.49999997e-05
   5447, 0.000369999994, 7.9999998e-05
   5448, 0.000369999994, 7.50000036e-05
   5449, 0.000369999994, 7.00000019e-05
   5450, 0.000369999994, 6.50000002e-05
   5451, 0.000369999994, 5.99999985e-05
   5452, 0.000369999994, 5.50000004e-05
   5453, 0.000369999994, 4.99999987e-05
   5454, 0.000369999994, 4.50000007e-05
   5455, 0.000369999994, 3.9999999e-05
   5456, 0.000369999994, 3.50000009e-05
   5457, 0.000369999994, 2.99999992e-05
   5458, 0.000369999994, 2.49999994e-05
   5459, 0.000369999994, 1.99999995e-05
   5460, 0.000369999994, 1.49999996e-05
   5461, 0.000369999994, 9.99999975e-06
   5462, 0.000369999994, 4.99999987e-06
   5463, 0.000375000003, 0.000195000001
   5464, 0.000375000003, 0.000190000006
   5465, 0.000375000003, 0.000184999997
   5466, 0.000375000003, 0.000180000003
   5467, 0.000375000003, 0.000174999994
   5468, 0.000375000003, 0.000169999999
   5469, 0.000375000003, 0.000165000005
   5470, 0.000375000003, 0.000159999996
   5471, 0.000375000003, 0.000155000002
   5472, 0.000375000003, 0.000150000007
   5473, 0.000375000003, 0.000144999998
   5474, 0.000375000003, 0.000140000004
   5475, 0.000375000003, 0.000134999995
   5476, 0.000375000003,      0.00013
   5477, 0.000375000003, 0.000125000006
   5478, 0.000375000003, 0.000119999997
   5479, 0.000375000003, 0.000115000003
   5480, 0.000375000003, 0.000110000001
   5481, 0.000375000003, 0.000104999999
   5482, 0.000375000003, 9.99999975e-05
   5483, 0.000375000003, 9.50000031e-05
   5484, 0.000375000003, 9.00000014e-05
   5485, 0.000375000003, 8.49999997e-05
   5486, 0.000375000003, 7.9999998e-05
   5487, 0.000375000003, 7.50000036e-05
   5488, 0.000375000003, 7.00000019e-05
   5489, 0.000375000003, 6.50000002e-05
   5490, 0.000375000003, 5.99999985e-05
   5491, 0.000375000003, 5.50000004e-05
   5492, 0.000375000003, 4.99999987e-05
   5493, 0.000375000003, 4.50000007e-05
   5494, 0.000375000003, 3.9999999e-05
   5495, 0.000375000003, 3.50000009e-05
   5496, 0.000375000003, 2.99999992e-05
   5497, 0.000375000003, 2.49999994e-05
   5498, 0.000375000003, 1.99999995e-05
   5499, 0.000375000003, 1.49999996e-05
   5500, 0.000375000003, 9.99999975e-06
   5501, 0.000375000003, 4.99999987e-06
   5502, 0.000380000012, 0.000195000001
   5503, 0.000380000012, 0.000190000006
   5504, 0.000380000012, 0.000184999997
   5505, 0.000380000012, 0.000180000003
   5506, 0.000380000012, 0.000174999994
   5507, 0.000380000012, 0.000169999999
   5508, 0.000380000012, 0.000165000005
   5509, 0.000380000012, 0.000159999996
   5510, 0.000380000012, 0.000155000002
   5511, 0.000380000012, 0.000150000007
   5512, 0.000380000012, 0.000144999998
   5513, 0.000380000012, 0.000140000004
   5514, 0.000380000012, 0.000134999995
   5515, 0.000380000012,      0.00013
   5516, 0.000380000012, 0.000125000006
   5517, 0.000380000012, 0.000119999997
   5518, 0.000380000012, 0.000115000003
   5519, 0.000380000012, 0.000110000001
   5520, 0.000380000012, 0.000104999999
   5521, 0.000380000012, 9.99999975e-05
   5522, 0.000380000012, 9.50000031e-05
   5523, 0.000380000012, 9.00000014e-05
   5524, 0.000380000012, 8.49999997e-05
   5525, 0.000380000012, 7.9999998e-05
   5526, 0.000380000012, 7.50000036e-05
   5527, 0.000380000012, 7.00000019e-05
   5528, 0.000380000012, 6.50000002e-05
   5529, 0.000380000012, 5.99999985e-05
   5530, 0.000380000012, 5.50000004e-05
   5531, 0.000380000012, 4.99999987e-05
   5532, 0.000380000012, 4.50000007e-05
   5533, 0.000380000012, 3.9999999e-05
   5534, 0.000380000012, 3.50000009e-05
   5535, 0.000380000012, 2.99999992e-05
   5536, 0.000380000012, 2.49999994e-05
   5537, 0.000380000012, 1.99999995e-05
   5538, 0.000380000012, 1.49999996e-05
   5539, 0.000380000012, 9.99999975e-06
   5540, 0.000380000012, 4.99999987e-06
   5541, 0.000384999992, 0.000195000001
   5542, 0.000384999992, 0.000190000006
   5543, 0.000384999992, 0.000184999997
   5544, 0.000384999992, 0.000180000003
   5545, 0.000384999992, 0.000174999994
   5546, 0.000384999992, 0.000169999999
   5547, 0.000384999992, 0.000165000005
   5548, 0.000384999992, 0.000159999996
   5549, 0.000384999992, 0.000155000002
   5550, 0.000384999992, 0.000150000007
   5551, 0.000384999992, 0.000144999998
   5552, 0.000384999992, 0.000140000004
   5553, 0.000384999992, 0.000134999995
   5554, 0.000384999992,      0.00013
   5555, 0.000384999992, 0.000125000006
   5556, 0.000384999992, 0.000119999997
   5557, 0.000384999992, 0.000115000003
   5558, 0.000384999992, 0.000110000001
   5559, 0.000384999992, 0.000104999999
   5560, 0.000384999992, 9.99999975e-05
   5561, 0.000384999992, 9.50000031e-05
   5562, 0.000384999992, 9.00000014e-05
   5563, 0.000384999992, 8.49999997e-05
   5564, 0.000384999992, 7.9999998e-05
   5565, 0.000384999992, 7.50000036e-05
   5566, 0.000384999992, 7.00000019e-05
   5567, 0.000384999992, 6.50000002e-05
   5568, 0.000384999992, 5.99999985e-05
   5569, 0.000384999992, 5.50000004e-05
   5570, 0.000384999992, 4.99999987e-05
   5571, 0.000384999992, 4.50000007e-05
   5572, 0.000384999992, 3.9999999e-05
   5573, 0.000384999992, 3.50000009e-05
   5574, 0.000384999992, 2.99999992e-05
   5575, 0.000384999992, 2.49999994e-05
   5576, 0.000384999992, 1.99999995e-05
   5577, 0.000384999992, 1.49999996e-05
   5578, 0.000384999992, 9.99999975e-06
   5579, 0.000384999992, 4.99999987e-06
   5580, 0.000390000001, 0.000195000001
   5581, 0.000390000001, 0.000190000006
   5582, 0.000390000001, 0.000184999997
   5583, 0.000390000001, 0.000180000003
   5584, 0.000390000001, 0.000174999994
   5585, 0.000390000001, 0.000169999999
   5586, 0.000390000001, 0.000165000005
   5587, 0.000390000001, 0.000159999996
   5588, 0.000390000001, 0.000155000002
   5589, 0.000390000001, 0.000150000007
   5590, 0.000390000001, 0.000144999998
   5591, 0.000390000001, 0.000140000004
   5592, 0.000390000001, 0.000134999995
   5593, 0.000390000001,      0.00013
   5594, 0.000390000001, 0.000125000006
   5595, 0.000390000001, 0.000119999997
   5596, 0.000390000001, 0.000115000003
   5597, 0.000390000001, 0.000110000001
   5598, 0.000390000001, 0.000104999999
   5599, 0.000390000001, 9.99999975e-05
   5600, 0.000390000001, 9.50000031e-05
   5601, 0.000390000001, 9.00000014e-05
   5602, 0.000390000001, 8.49999997e-05
   5603, 0.000390000001, 7.9999998e-05
   5604, 0.000390000001, 7.50000036e-05
   5605, 0.000390000001, 7.00000019e-05
   5606, 0.000390000001, 6.50000002e-05
   5607, 0.000390000001, 5.99999985e-05
   5608, 0.000390000001, 5.50000004e-05
   5609, 0.000390000001, 4.99999987e-05
   5610, 0.000390000001, 4.50000007e-05
   5611, 0.000390000001, 3.9999999e-05
   5612, 0.000390000001, 3.50000009e-05
   5613, 0.000390000001, 2.99999992e-05
   5614, 0.000390000001, 2.49999994e-05
   5615, 0.000390000001, 1.99999995e-05
   5616, 0.000390000001, 1.49999996e-05
   5617, 0.000390000001, 9.99999975e-06
   5618, 0.000390000001, 4.99999987e-06
   5619, 0.00039500001, 0.000195000001
   5620, 0.00039500001, 0.000190000006
   5621, 0.00039500001, 0.000184999997
   5622, 0.00039500001, 0.000180000003
   5623, 0.00039500001, 0.000174999994
   5624, 0.00039500001, 0.000169999999
   5625, 0.00039500001, 0.000165000005
   5626, 0.00039500001, 0.000159999996
   5627, 0.00039500001, 0.000155000002
   5628, 0.00039500001, 0.000150000007
   5629, 0.00039500001, 0.000144999998
   5630, 0.00039500001, 0.000140000004
   5631, 0.00039500001, 0.000134999995
   5632, 0.00039500001,      0.00013
   5633, 0.00039500001, 0.000125000006
   5634, 0.00039500001, 0.000119999997
   5635, 0.00039500001, 0.000115000003
   5636, 0.00039500001, 0.000110000001
   5637, 0.00039500001, 0.000104999999
   5638, 0.00039500001, 9.99999975e-05
   5639, 0.00039500001, 9.50000031e-05
   5640, 0.00039500001, 9.00000014e-05
   5641, 0.00039500001, 8.49999997e-05
   5642, 0.00039500001, 7.9999998e-05
   5643, 0.00039500001, 7.50000036e-05
   5644, 0.00039500001, 7.00000019e-05
   5645, 0.00039500001, 6.50000002e-05
   5646, 0.00039500001, 5.99999985e-05
   5647, 0.00039500001, 5.50000004e-05
   5648, 0.00039500001, 4.99999987e-05
   5649, 0.00039500001, 4.50000007e-05
   5650, 0.00039500001, 3.9999999e-05
   5651, 0.00039500001, 3.50000009e-05
   5652, 0.00039500001, 2.99999992e-05
   5653, 0.00039500001, 2.49999994e-05
   5654, 0.00039500001, 1.99999995e-05
   5655, 0.00039500001, 1.49999996e-05
   5656, 0.00039500001, 9.99999975e-06
   5657, 0.00039500001, 4.99999987e-06
   5658, 0.00039999999, 0.000195000001
   5659, 0.00039999999, 0.000190000006
   5660, 0.00039999999, 0.000184999997
   5661, 0.00039999999, 0.000180000003
   5662, 0.00039999999, 0.000174999994
   5663, 0.00039999999, 0.000169999999
   5664, 0.00039999999, 0.000165000005
   5665, 0.00039999999, 0.000159999996
   5666, 0.00039999999, 0.000155000002
   5667, 0.00039999999, 0.000150000007
   5668, 0.00039999999, 0.000144999998
   5669, 0.00039999999, 0.000140000004
   5670, 0.00039999999, 0.000134999995
   5671, 0.00039999999,      0.00013
   5672, 0.00039999999, 0.000125000006
   5673, 0.00039999999, 0.000119999997
   5674, 0.00039999999, 0.000115000003
   5675, 0.00039999999, 0.000110000001
   5676, 0.00039999999, 0.000104999999
   5677, 0.00039999999, 9.99999975e-05
   5678, 0.00039999999, 9.50000031e-05
   5679, 0.00039999999, 9.00000014e-05
   5680, 0.00039999999, 8.49999997e-05
   5681, 0.00039999999, 7.9999998e-05
   5682, 0.00039999999, 7.50000036e-05
   5683, 0.00039999999, 7.00000019e-05
   5684, 0.00039999999, 6.50000002e-05
   5685, 0.00039999999, 5.99999985e-05
   5686, 0.00039999999, 5.50000004e-05
   5687, 0.00039999999, 4.99999987e-05
   5688, 0.00039999999, 4.50000007e-05
   5689, 0.00039999999, 3.9999999e-05
   5690, 0.00039999999, 3.50000009e-05
   5691, 0.00039999999, 2.99999992e-05
   5692, 0.00039999999, 2.49999994e-05
   5693, 0.00039999999, 1.99999995e-05
   5694, 0.00039999999, 1.49999996e-05
   5695, 0.00039999999, 9.99999975e-06
   5696, 0.00039999999, 4.99999987e-06
   5697, 0.000404999999, 0.000195000001
   5698, 0.000404999999, 0.000190000006
   5699, 0.000404999999, 0.000184999997
   5700, 0.000404999999, 0.000180000003
   5701, 0.000404999999, 0.000174999994
   5702, 0.000404999999, 0.000169999999
   5703, 0.000404999999, 0.000165000005
   5704, 0.000404999999, 0.000159999996
   5705, 0.000404999999, 0.000155000002
   5706, 0.000404999999, 0.000150000007
   5707, 0.000404999999, 0.000144999998
   5708, 0.000404999999, 0.000140000004
   5709, 0.000404999999, 0.000134999995
   5710, 0.000404999999,      0.00013
   5711, 0.000404999999, 0.000125000006
   5712, 0.000404999999, 0.000119999997
   5713, 0.000404999999, 0.000115000003
   5714, 0.000404999999, 0.000110000001
   5715, 0.000404999999, 0.000104999999
   5716, 0.000404999999, 9.99999975e-05
   5717, 0.000404999999, 9.50000031e-05
   5718, 0.000404999999, 9.00000014e-05
   5719, 0.000404999999, 8.49999997e-05
   5720, 0.000404999999, 7.9999998e-05
   5721, 0.000404999999, 7.50000036e-05
   5722, 0.000404999999, 7.00000019e-05
   5723, 0.000404999999, 6.50000002e-05
   5724, 0.000404999999, 5.99999985e-05
   5725, 0.000404999999, 5.50000004e-05
   5726, 0.000404999999, 4.99999987e-05
   5727, 0.000404999999, 4.50000007e-05
   5728, 0.000404999999, 3.9999999e-05
   5729, 0.000404999999, 3.50000009e-05
   5730, 0.000404999999, 2.99999992e-05
   5731, 0.000404999999, 2.49999994e-05
   5732, 0.000404999999, 1.99999995e-05
   5733, 0.000404999999, 1.49999996e-05
   5734, 0.000404999999, 9.99999975e-06
   5735, 0.000404999999, 4.99999987e-06
   5736, 0.000410000008, 0.000195000001
   5737, 0.000410000008, 0.000190000006
   5738, 0.000410000008, 0.000184999997
   5739, 0.000410000008, 0.000180000003
   5740, 0.000410000008, 0.000174999994
   5741, 0.000410000008, 0.000169999999
   5742, 0.000410000008, 0.000165000005
   5743, 0.000410000008, 0.000159999996
   5744, 0.000410000008, 0.000155000002
   5745, 0.000410000008, 0.000150000007
   5746, 0.000410000008, 0.000144999998
   5747, 0.000410000008, 0.000140000004
   5748, 0.000410000008, 0.000134999995
   5749, 0.000410000008,      0.00013
   5750, 0.000410000008, 0.000125000006
   5751, 0.000410000008, 0.000119999997
   5752, 0.000410000008, 0.000115000003
   5753, 0.000410000008, 0.000110000001
   5754, 0.000410000008, 0.000104999999
   5755, 0.000410000008, 9.99999975e-05
   5756, 0.000410000008, 9.50000031e-05
   5757, 0.000410000008, 9.00000014e-05
   5758, 0.000410000008, 8.49999997e-05
   5759, 0.000410000008, 7.9999998e-05
   5760, 0.000410000008, 7.50000036e-05
   5761, 0.000410000008, 7.00000019e-05
   5762, 0.000410000008, 6.50000002e-05
   5763, 0.000410000008, 5.99999985e-05
   5764, 0.000410000008, 5.50000004e-05
   5765, 0.000410000008, 4.99999987e-05
   5766, 0.000410000008, 4.50000007e-05
   5767, 0.000410000008, 3.9999999e-05
   5768, 0.000410000008, 3.50000009e-05
   5769, 0.000410000008, 2.99999992e-05
   5770, 0.000410000008, 2.49999994e-05
   5771, 0.000410000008, 1.99999995e-05
   5772, 0.000410000008, 1.49999996e-05
   5773, 0.000410000008, 9.99999975e-06
   5774, 0.000410000008, 4.99999987e-06
   5775, 0.000414999988, 0.000195000001
   5776, 0.000414999988, 0.000190000006
   5777, 0.000414999988, 0.000184999997
   5778, 0.000414999988, 0.000180000003
   5779, 0.000414999988, 0.000174999994
   5780, 0.000414999988, 0.000169999999
   5781, 0.000414999988, 0.000165000005
   5782, 0.000414999988, 0.000159999996
   5783, 0.000414999988, 0.000155000002
   5784, 0.000414999988, 0.000150000007
   5785, 0.000414999988, 0.000144999998
   5786, 0.000414999988, 0.000140000004
   5787, 0.000414999988, 0.000134999995
   5788, 0.000414999988,      0.00013
   5789, 0.000414999988, 0.000125000006
   5790, 0.000414999988, 0.000119999997
   5791, 0.000414999988, 0.000115000003
   5792, 0.000414999988, 0.000110000001
   5793, 0.000414999988, 0.000104999999
   5794, 0.000414999988, 9.99999975e-05
   5795, 0.000414999988, 9.50000031e-05
   5796, 0.000414999988, 9.00000014e-05
   5797, 0.000414999988, 8.49999997e-05
   5798, 0.000414999988, 7.9999998e-05
   5799, 0.000414999988, 7.50000036e-05
   5800, 0.000414999988, 7.00000019e-05
   5801, 0.000414999988, 6.50000002e-05
   5802, 0.000414999988, 5.99999985e-05
   5803, 0.000414999988, 5.50000004e-05
   5804, 0.000414999988, 4.99999987e-05
   5805, 0.000414999988, 4.50000007e-05
   5806, 0.000414999988, 3.9999999e-05
   5807, 0.000414999988, 3.50000009e-05
   5808, 0.000414999988, 2.99999992e-05
   5809, 0.000414999988, 2.49999994e-05
   5810, 0.000414999988, 1.99999995e-05
   5811, 0.000414999988, 1.49999996e-05
   5812, 0.000414999988, 9.99999975e-06
   5813, 0.000414999988, 4.99999987e-06
   5814, 0.000419999997, 0.000195000001
   5815, 0.000419999997, 0.000190000006
   5816, 0.000419999997, 0.000184999997
   5817, 0.000419999997, 0.000180000003
   5818, 0.000419999997, 0.000174999994
   5819, 0.000419999997, 0.000169999999
   5820, 0.000419999997, 0.000165000005
   5821, 0.000419999997, 0.000159999996
   5822, 0.000419999997, 0.000155000002
   5823, 0.000419999997, 0.000150000007
   5824, 0.000419999997, 0.000144999998
   5825, 0.000419999997, 0.000140000004
   5826, 0.000419999997, 0.000134999995
   5827, 0.000419999997,      0.00013
   5828, 0.000419999997, 0.000125000006
   5829, 0.000419999997, 0.000119999997
   5830, 0.000419999997, 0.000115000003
   5831, 0.000419999997, 0.000110000001
   5832, 0.000419999997, 0.000104999999
   5833, 0.000419999997, 9.99999975e-05
   5834, 0.000419999997, 9.50000031e-05
   5835, 0.000419999997, 9.00000014e-05
   5836, 0.000419999997, 8.49999997e-05
   5837, 0.000419999997, 7.9999998e-05
   5838, 0.000419999997, 7.50000036e-05
   5839, 0.000419999997, 7.00000019e-05
   5840, 0.000419999997, 6.50000002e-05
   5841, 0.000419999997, 5.99999985e-05
   5842, 0.000419999997, 5.50000004e-05
   5843, 0.000419999997, 4.99999987e-05
   5844, 0.000419999997, 4.50000007e-05
   5845, 0.000419999997, 3.9999999e-05
   5846, 0.000419999997, 3.50000009e-05
   5847, 0.000419999997, 2.99999992e-05
   5848, 0.000419999997, 2.49999994e-05
   5849, 0.000419999997, 1.99999995e-05
   5850, 0.000419999997, 1.49999996e-05
   5851, 0.000419999997, 9.99999975e-06
   5852, 0.000419999997, 4.99999987e-06
   5853, 0.000425000006, 0.000195000001
   5854, 0.000425000006, 0.000190000006
   5855, 0.000425000006, 0.000184999997
   5856, 0.000425000006, 0.000180000003
   5857, 0.000425000006, 0.000174999994
   5858, 0.000425000006, 0.000169999999
   5859, 0.000425000006, 0.000165000005
   5860, 0.000425000006, 0.000159999996
   5861, 0.000425000006, 0.000155000002
   5862, 0.000425000006, 0.000150000007
   5863, 0.000425000006, 0.000144999998
   5864, 0.000425000006, 0.000140000004
   5865, 0.000425000006, 0.000134999995
   5866, 0.000425000006,      0.00013
   5867, 0.000425000006, 0.000125000006
   5868, 0.000425000006, 0.000119999997
   5869, 0.000425000006, 0.000115000003
   5870, 0.000425000006, 0.000110000001
   5871, 0.000425000006, 0.000104999999
   5872, 0.000425000006, 9.99999975e-05
   5873, 0.000425000006, 9.50000031e-05
   5874, 0.000425000006, 9.00000014e-05
   5875, 0.000425000006, 8.49999997e-05
   5876, 0.000425000006, 7.9999998e-05
   5877, 0.000425000006, 7.50000036e-05
   5878, 0.000425000006, 7.00000019e-05
   5879, 0.000425000006, 6.50000002e-05
   5880, 0.000425000006, 5.99999985e-05
   5881, 0.000425000006, 5.50000004e-05
   5882, 0.000425000006, 4.99999987e-05
   5883, 0.000425000006, 4.50000007e-05
   5884, 0.000425000006, 3.9999999e-05
   5885, 0.000425000006, 3.50000009e-05
   5886, 0.000425000006, 2.99999992e-05
   5887, 0.000425000006, 2.49999994e-05
   5888, 0.000425000006, 1.99999995e-05
   5889, 0.000425000006, 1.49999996e-05
   5890, 0.000425000006, 9.99999975e-06
   5891, 0.000425000006, 4.99999987e-06
   5892, 0.000429999985, 0.000195000001
   5893, 0.000429999985, 0.000190000006
   5894, 0.000429999985, 0.000184999997
   5895, 0.000429999985, 0.000180000003
   5896, 0.000429999985, 0.000174999994
   5897, 0.000429999985, 0.000169999999
   5898, 0.000429999985, 0.000165000005
   5899, 0.000429999985, 0.000159999996
   5900, 0.000429999985, 0.000155000002
   5901, 0.000429999985, 0.000150000007
   5902, 0.000429999985, 0.000144999998
   5903, 0.000429999985, 0.000140000004
   5904, 0.000429999985, 0.000134999995
   5905, 0.000429999985,      0.00013
   5906, 0.000429999985, 0.000125000006
   5907, 0.000429999985, 0.000119999997
   5908, 0.000429999985, 0.000115000003
   5909, 0.000429999985, 0.000110000001
   5910, 0.000429999985, 0.000104999999
   5911, 0.000429999985, 9.99999975e-05
   5912, 0.000429999985, 9.50000031e-05
   5913, 0.000429999985, 9.00000014e-05
   5914, 0.000429999985, 8.49999997e-05
   5915, 0.000429999985, 7.9999998e-05
   5916, 0.000429999985, 7.50000036e-05
   5917, 0.000429999985, 7.00000019e-05
   5918, 0.000429999985, 6.50000002e-05
   5919, 0.000429999985, 5.99999985e-05
   5920, 0.000429999985, 5.50000004e-05
   5921, 0.000429999985, 4.99999987e-05
   5922, 0.000429999985, 4.50000007e-05
   5923, 0.000429999985, 3.9999999e-05
   5924, 0.000429999985, 3.50000009e-05
   5925, 0.000429999985, 2.99999992e-05
   5926, 0.000429999985, 2.49999994e-05
   5927, 0.000429999985, 1.99999995e-05
   5928, 0.000429999985, 1.49999996e-05
   5929, 0.000429999985, 9.99999975e-06
   5930, 0.000429999985, 4.99999987e-06
   5931, 0.000434999994, 0.000195000001
   5932, 0.000434999994, 0.000190000006
   5933, 0.000434999994, 0.000184999997
   5934, 0.000434999994, 0.000180000003
   5935, 0.000434999994, 0.000174999994
   5936, 0.000434999994, 0.000169999999
   5937, 0.000434999994, 0.000165000005
   5938, 0.000434999994, 0.000159999996
   5939, 0.000434999994, 0.000155000002
   5940, 0.000434999994, 0.000150000007
   5941, 0.000434999994, 0.000144999998
   5942, 0.000434999994, 0.000140000004
   5943, 0.000434999994, 0.000134999995
   5944, 0.000434999994,      0.00013
   5945, 0.000434999994, 0.000125000006
   5946, 0.000434999994, 0.000119999997
   5947, 0.000434999994, 0.000115000003
   5948, 0.000434999994, 0.000110000001
   5949, 0.000434999994, 0.000104999999
   5950, 0.000434999994, 9.99999975e-05
   5951, 0.000434999994, 9.50000031e-05
   5952, 0.000434999994, 9.00000014e-05
   5953, 0.000434999994, 8.49999997e-05
   5954, 0.000434999994, 7.9999998e-05
   5955, 0.000434999994, 7.50000036e-05
   5956, 0.000434999994, 7.00000019e-05
   5957, 0.000434999994, 6.50000002e-05
   5958, 0.000434999994, 5.99999985e-05
   5959, 0.000434999994, 5.50000004e-05
   5960, 0.000434999994, 4.99999987e-05
   5961, 0.000434999994, 4.50000007e-05
   5962, 0.000434999994, 3.9999999e-05
   5963, 0.000434999994, 3.50000009e-05
   5964, 0.000434999994, 2.99999992e-05
   5965, 0.000434999994, 2.49999994e-05
   5966, 0.000434999994, 1.99999995e-05
   5967, 0.000434999994, 1.49999996e-05
   5968, 0.000434999994, 9.99999975e-06
   5969, 0.000434999994, 4.99999987e-06
   5970, 0.000440000003, 0.000195000001
   5971, 0.000440000003, 0.000190000006
   5972, 0.000440000003, 0.000184999997
   5973, 0.000440000003, 0.000180000003
   5974, 0.000440000003, 0.000174999994
   5975, 0.000440000003, 0.000169999999
   5976, 0.000440000003, 0.000165000005
   5977, 0.000440000003, 0.000159999996
   5978, 0.000440000003, 0.000155000002
   5979, 0.000440000003, 0.000150000007
   5980, 0.000440000003, 0.000144999998
   5981, 0.000440000003, 0.000140000004
   5982, 0.000440000003, 0.000134999995
   5983, 0.000440000003,      0.00013
   5984, 0.000440000003, 0.000125000006
   5985, 0.000440000003, 0.000119999997
   5986, 0.000440000003, 0.000115000003
   5987, 0.000440000003, 0.000110000001
   5988, 0.000440000003, 0.000104999999
   5989, 0.000440000003, 9.99999975e-05
   5990, 0.000440000003, 9.50000031e-05
   5991, 0.000440000003, 9.00000014e-05
   5992, 0.000440000003, 8.49999997e-05
   5993, 0.000440000003, 7.9999998e-05
   5994, 0.000440000003, 7.50000036e-05
   5995, 0.000440000003, 7.00000019e-05
   5996, 0.000440000003, 6.50000002e-05
   5997, 0.000440000003, 5.99999985e-05
   5998, 0.000440000003, 5.50000004e-05
   5999, 0.000440000003, 4.99999987e-05
   6000, 0.000440000003, 4.50000007e-05
   6001, 0.000440000003, 3.9999999e-05
   6002, 0.000440000003, 3.50000009e-05
   6003, 0.000440000003, 2.99999992e-05
   6004, 0.000440000003, 2.49999994e-05
   6005, 0.000440000003, 1.99999995e-05
   6006, 0.000440000003, 1.49999996e-05
   6007, 0.000440000003, 9.99999975e-06
   6008, 0.000440000003, 4.99999987e-06
   6009, 0.000445000012, 0.000195000001
   6010, 0.000445000012, 0.000190000006
   6011, 0.000445000012, 0.000184999997
   6012, 0.000445000012, 0.000180000003
   6013, 0.000445000012, 0.000174999994
   6014, 0.000445000012, 0.000169999999
   6015, 0.000445000012, 0.000165000005
   6016, 0.000445000012, 0.000159999996
   6017, 0.000445000012, 0.000155000002
   6018, 0.000445000012, 0.000150000007
   6019, 0.000445000012, 0.000144999998
   6020, 0.000445000012, 0.000140000004
   6021, 0.000445000012, 0.000134999995
   6022, 0.000445000012,      0.00013
   6023, 0.000445000012, 0.000125000006
   6024, 0.000445000012, 0.000119999997
   6025, 0.000445000012, 0.000115000003
   6026, 0.000445000012, 0.000110000001
   6027, 0.000445000012, 0.000104999999
   6028, 0.000445000012, 9.99999975e-05
   6029, 0.000445000012, 9.50000031e-05
   6030, 0.000445000012, 9.00000014e-05
   6031, 0.000445000012, 8.49999997e-05
   6032, 0.000445000012, 7.9999998e-05
   6033, 0.000445000012, 7.50000036e-05
   6034, 0.000445000012, 7.00000019e-05
   6035, 0.000445000012, 6.50000002e-05
   6036, 0.000445000012, 5.99999985e-05
   6037, 0.000445000012, 5.50000004e-05
   6038, 0.000445000012, 4.99999987e-05
   6039, 0.000445000012, 4.50000007e-05
   6040, 0.000445000012, 3.9999999e-05
   6041, 0.000445000012, 3.50000009e-05
   6042, 0.000445000012, 2.99999992e-05
   6043, 0.000445000012, 2.49999994e-05
   6044, 0.000445000012, 1.99999995e-05
   6045, 0.000445000012, 1.49999996e-05
   6046, 0.000445000012, 9.99999975e-06
   6047, 0.000445000012, 4.99999987e-06
   6048, 0.000449999992, 0.000195000001
   6049, 0.000449999992, 0.000190000006
   6050, 0.000449999992, 0.000184999997
   6051, 0.000449999992, 0.000180000003
   6052, 0.000449999992, 0.000174999994
   6053, 0.000449999992, 0.000169999999
   6054, 0.000449999992, 0.000165000005
   6055, 0.000449999992, 0.000159999996
   6056, 0.000449999992, 0.000155000002
   6057, 0.000449999992, 0.000150000007
   6058, 0.000449999992, 0.000144999998
   6059, 0.000449999992, 0.000140000004
   6060, 0.000449999992, 0.000134999995
   6061, 0.000449999992,      0.00013
   6062, 0.000449999992, 0.000125000006
   6063, 0.000449999992, 0.000119999997
   6064, 0.000449999992, 0.000115000003
   6065, 0.000449999992, 0.000110000001
   6066, 0.000449999992, 0.000104999999
   6067, 0.000449999992, 9.99999975e-05
   6068, 0.000449999992, 9.50000031e-05
   6069, 0.000449999992, 9.00000014e-05
   6070, 0.000449999992, 8.49999997e-05
   6071, 0.000449999992, 7.9999998e-05
   6072, 0.000449999992, 7.50000036e-05
   6073, 0.000449999992, 7.00000019e-05
   6074, 0.000449999992, 6.50000002e-05
   6075, 0.000449999992, 5.99999985e-05
   6076, 0.000449999992, 5.50000004e-05
   6077, 0.000449999992, 4.99999987e-05
   6078, 0.000449999992, 4.50000007e-05
   6079, 0.000449999992, 3.9999999e-05
   6080, 0.000449999992, 3.50000009e-05
   6081, 0.000449999992, 2.99999992e-05
   6082, 0.000449999992, 2.49999994e-05
   6083, 0.000449999992, 1.99999995e-05
   6084, 0.000449999992, 1.49999996e-05
   6085, 0.000449999992, 9.99999975e-06
   6086, 0.000449999992, 4.99999987e-06
   6087, 0.000455000001, 0.000195000001
   6088, 0.000455000001, 0.000190000006
   6089, 0.000455000001, 0.000184999997
   6090, 0.000455000001, 0.000180000003
   6091, 0.000455000001, 0.000174999994
   6092, 0.000455000001, 0.000169999999
   6093, 0.000455000001, 0.000165000005
   6094, 0.000455000001, 0.000159999996
   6095, 0.000455000001, 0.000155000002
   6096, 0.000455000001, 0.000150000007
   6097, 0.000455000001, 0.000144999998
   6098, 0.000455000001, 0.000140000004
   6099, 0.000455000001, 0.000134999995
   6100, 0.000455000001,      0.00013
   6101, 0.000455000001, 0.000125000006
   6102, 0.000455000001, 0.000119999997
   6103, 0.000455000001, 0.000115000003
   6104, 0.000455000001, 0.000110000001
   6105, 0.000455000001, 0.000104999999
   6106, 0.000455000001, 9.99999975e-05
   6107, 0.000455000001, 9.50000031e-05
   6108, 0.000455000001, 9.00000014e-05
   6109, 0.000455000001, 8.49999997e-05
   6110, 0.000455000001, 7.9999998e-05
   6111, 0.000455000001, 7.50000036e-05
   6112, 0.000455000001, 7.00000019e-05
   6113, 0.000455000001, 6.50000002e-05
   6114, 0.000455000001, 5.99999985e-05
   6115, 0.000455000001, 5.50000004e-05
   6116, 0.000455000001, 4.99999987e-05
   6117, 0.000455000001, 4.50000007e-05
   6118, 0.000455000001, 3.9999999e-05
   6119, 0.000455000001, 3.50000009e-05
   6120, 0.000455000001, 2.99999992e-05
   6121, 0.000455000001, 2.49999994e-05
   6122, 0.000455000001, 1.99999995e-05
   6123, 0.000455000001, 1.49999996e-05
   6124, 0.000455000001, 9.99999975e-06
   6125, 0.000455000001, 4.99999987e-06
   6126, 0.00046000001, 0.000195000001
   6127, 0.00046000001, 0.000190000006
   6128, 0.00046000001, 0.000184999997
   6129, 0.00046000001, 0.000180000003
   6130, 0.00046000001, 0.000174999994
   6131, 0.00046000001, 0.000169999999
   6132, 0.00046000001, 0.000165000005
   6133, 0.00046000001, 0.000159999996
   6134, 0.00046000001, 0.000155000002
   6135, 0.00046000001, 0.000150000007
   6136, 0.00046000001, 0.000144999998
   6137, 0.00046000001, 0.000140000004
   6138, 0.00046000001, 0.000134999995
   6139, 0.00046000001,      0.00013
   6140, 0.00046000001, 0.000125000006
   6141, 0.00046000001, 0.000119999997
   6142, 0.00046000001, 0.000115000003
   6143, 0.00046000001, 0.000110000001
   6144, 0.00046000001, 0.000104999999
   6145, 0.00046000001, 9.99999975e-05
   6146, 0.00046000001, 9.50000031e-05
   6147, 0.00046000001, 9.00000014e-05
   6148, 0.00046000001, 8.49999997e-05
   6149, 0.00046000001, 7.9999998e-05
   6150, 0.00046000001, 7.50000036e-05
   6151, 0.00046000001, 7.00000019e-05
   6152, 0.00046000001, 6.50000002e-05
   6153, 0.00046000001, 5.99999985e-05
   6154, 0.00046000001, 5.50000004e-05
   6155, 0.00046000001, 4.99999987e-05
   6156, 0.00046000001, 4.50000007e-05
   6157, 0.00046000001, 3.9999999e-05
   6158, 0.00046000001, 3.50000009e-05
   6159, 0.00046000001, 2.99999992e-05
   6160, 0.00046000001, 2.49999994e-05
   6161, 0.00046000001, 1.99999995e-05
   6162, 0.00046000001, 1.49999996e-05
   6163, 0.00046000001, 9.99999975e-06
   6164, 0.00046000001, 4.99999987e-06
   6165, 0.00046499999, 0.000195000001
   6166, 0.00046499999, 0.000190000006
   6167, 0.00046499999, 0.000184999997
   6168, 0.00046499999, 0.000180000003
   6169, 0.00046499999, 0.000174999994
   6170, 0.00046499999, 0.000169999999
   6171, 0.00046499999, 0.000165000005
   6172, 0.00046499999, 0.000159999996
   6173, 0.00046499999, 0.000155000002
   6174, 0.00046499999, 0.000150000007
   6175, 0.00046499999, 0.000144999998
   6176, 0.00046499999, 0.000140000004
   6177, 0.00046499999, 0.000134999995
   6178, 0.00046499999,      0.00013
   6179, 0.00046499999, 0.000125000006
   6180, 0.00046499999, 0.000119999997
   6181, 0.00046499999, 0.000115000003
   6182, 0.00046499999, 0.000110000001
   6183, 0.00046499999, 0.000104999999
   6184, 0.00046499999, 9.99999975e-05
   6185, 0.00046499999, 9.50000031e-05
   6186, 0.00046499999, 9.00000014e-05
   6187, 0.00046499999, 8.49999997e-05
   6188, 0.00046499999, 7.9999998e-05
   6189, 0.00046499999, 7.50000036e-05
   6190, 0.00046499999, 7.00000019e-05
   6191, 0.00046499999, 6.50000002e-05
   6192, 0.00046499999, 5.99999985e-05
   6193, 0.00046499999, 5.50000004e-05
   6194, 0.00046499999, 4.99999987e-05
   6195, 0.00046499999, 4.50000007e-05
   6196, 0.00046499999, 3.9999999e-05
   6197, 0.00046499999, 3.50000009e-05
   6198, 0.00046499999, 2.99999992e-05
   6199, 0.00046499999, 2.49999994e-05
   6200, 0.00046499999, 1.99999995e-05
   6201, 0.00046499999, 1.49999996e-05
   6202, 0.00046499999, 9.99999975e-06
   6203, 0.00046499999, 4.99999987e-06
   6204, 0.000469999999, 0.000195000001
   6205, 0.000469999999, 0.000190000006
   6206, 0.000469999999, 0.000184999997
   6207, 0.000469999999, 0.000180000003
   6208, 0.000469999999, 0.000174999994
   6209, 0.000469999999, 0.000169999999
   6210, 0.000469999999, 0.000165000005
   6211, 0.000469999999, 0.000159999996
   6212, 0.000469999999, 0.000155000002
   6213, 0.000469999999, 0.000150000007
   6214, 0.000469999999, 0.000144999998
   6215, 0.000469999999, 0.000140000004
   6216, 0.000469999999, 0.000134999995
   6217, 0.000469999999,      0.00013
   6218, 0.000469999999, 0.000125000006
   6219, 0.000469999999, 0.000119999997
   6220, 0.000469999999, 0.000115000003
   6221, 0.000469999999, 0.000110000001
   6222, 0.000469999999, 0.000104999999
   6223, 0.000469999999, 9.99999975e-05
   6224, 0.000469999999, 9.50000031e-05
   6225, 0.000469999999, 9.00000014e-05
   6226, 0.000469999999, 8.49999997e-05
   6227, 0.000469999999, 7.9999998e-05
   6228, 0.000469999999, 7.50000036e-05
   6229, 0.000469999999, 7.00000019e-05
   6230, 0.000469999999, 6.50000002e-05
   6231, 0.000469999999, 5.99999985e-05
   6232, 0.000469999999, 5.50000004e-05
   6233, 0.000469999999, 4.99999987e-05
   6234, 0.000469999999, 4.50000007e-05
   6235, 0.000469999999, 3.9999999e-05
   6236, 0.000469999999, 3.50000009e-05
   6237, 0.000469999999, 2.99999992e-05
   6238, 0.000469999999, 2.49999994e-05
   6239, 0.000469999999, 1.99999995e-05
   6240, 0.000469999999, 1.49999996e-05
   6241, 0.000469999999, 9.99999975e-06
   6242, 0.000469999999, 4.99999987e-06
   6243, 0.000475000008, 0.000195000001
   6244, 0.000475000008, 0.000190000006
   6245, 0.000475000008, 0.000184999997
   6246, 0.000475000008, 0.000180000003
   6247, 0.000475000008, 0.000174999994
   6248, 0.000475000008, 0.000169999999
   6249, 0.000475000008, 0.000165000005
   6250, 0.000475000008, 0.000159999996
   6251, 0.000475000008, 0.000155000002
   6252, 0.000475000008, 0.000150000007
   6253, 0.000475000008, 0.000144999998
   6254, 0.000475000008, 0.000140000004
   6255, 0.000475000008, 0.000134999995
   6256, 0.000475000008,      0.00013
   6257, 0.000475000008, 0.000125000006
   6258, 0.000475000008, 0.000119999997
   6259, 0.000475000008, 0.000115000003
   6260, 0.000475000008, 0.000110000001
   6261, 0.000475000008, 0.000104999999
   6262, 0.000475000008, 9.99999975e-05
   6263, 0.000475000008, 9.50000031e-05
   6264, 0.000475000008, 9.00000014e-05
   6265, 0.000475000008, 8.49999997e-05
   6266, 0.000475000008, 7.9999998e-05
   6267, 0.000475000008, 7.50000036e-05
   6268, 0.000475000008, 7.00000019e-05
   6269, 0.000475000008, 6.50000002e-05
   6270, 0.000475000008, 5.99999985e-05
   6271, 0.000475000008, 5.50000004e-05
   6272, 0.000475000008, 4.99999987e-05
   6273, 0.000475000008, 4.50000007e-05
   6274, 0.000475000008, 3.9999999e-05
   6275, 0.000475000008, 3.50000009e-05
   6276, 0.000475000008, 2.99999992e-05
   6277, 0.000475000008, 2.49999994e-05
   6278, 0.000475000008, 1.99999995e-05
   6279, 0.000475000008, 1.49999996e-05
   6280, 0.000475000008, 9.99999975e-06
   6281, 0.000475000008, 4.99999987e-06
   6282, 0.000479999988, 0.000195000001
   6283, 0.000479999988, 0.000190000006
   6284, 0.000479999988, 0.000184999997
   6285, 0.000479999988, 0.000180000003
   6286, 0.000479999988, 0.000174999994
   6287, 0.000479999988, 0.000169999999
   6288, 0.000479999988, 0.000165000005
   6289, 0.000479999988, 0.000159999996
   6290, 0.000479999988, 0.000155000002
   6291, 0.000479999988, 0.000150000007
   6292, 0.000479999988, 0.000144999998
   6293, 0.000479999988, 0.000140000004
   6294, 0.000479999988, 0.000134999995
   6295, 0.000479999988,      0.00013
   6296, 0.000479999988, 0.000125000006
   6297, 0.000479999988, 0.000119999997
   6298, 0.000479999988, 0.000115000003
   6299, 0.000479999988, 0.000110000001
   6300, 0.000479999988, 0.000104999999
   6301, 0.000479999988, 9.99999975e-05
   6302, 0.000479999988, 9.50000031e-05
   6303, 0.000479999988, 9.00000014e-05
   6304, 0.000479999988, 8.49999997e-05
   6305, 0.000479999988, 7.9999998e-05
   6306, 0.000479999988, 7.50000036e-05
   6307, 0.000479999988, 7.00000019e-05
   6308, 0.000479999988, 6.50000002e-05
   6309, 0.000479999988, 5.99999985e-05
   6310, 0.000479999988, 5.50000004e-05
   6311, 0.000479999988, 4.99999987e-05
   6312, 0.000479999988, 4.50000007e-05
   6313, 0.000479999988, 3.9999999e-05
   6314, 0.000479999988, 3.50000009e-05
   6315, 0.000479999988, 2.99999992e-05
   6316, 0.000479999988, 2.49999994e-05
   6317, 0.000479999988, 1.99999995e-05
   6318, 0.000479999988, 1.49999996e-05
   6319, 0.000479999988, 9.99999975e-06
   6320, 0.000479999988, 4.99999987e-06
   6321, 0.000484999997, 0.000195000001
   6322, 0.000484999997, 0.000190000006
   6323, 0.000484999997, 0.000184999997
   6324, 0.000484999997, 0.000180000003
   6325, 0.000484999997, 0.000174999994
   6326, 0.000484999997, 0.000169999999
   6327, 0.000484999997, 0.000165000005
   6328, 0.000484999997, 0.000159999996
   6329, 0.000484999997, 0.000155000002
   6330, 0.000484999997, 0.000150000007
   6331, 0.000484999997, 0.000144999998
   6332, 0.000484999997, 0.000140000004
   6333, 0.000484999997, 0.000134999995
   6334, 0.000484999997,      0.00013
   6335, 0.000484999997, 0.000125000006
   6336, 0.000484999997, 0.000119999997
   6337, 0.000484999997, 0.000115000003
   6338, 0.000484999997, 0.000110000001
   6339, 0.000484999997, 0.000104999999
   6340, 0.000484999997, 9.99999975e-05
   6341, 0.000484999997, 9.50000031e-05
   6342, 0.000484999997, 9.00000014e-05
   6343, 0.000484999997, 8.49999997e-05
   6344, 0.000484999997, 7.9999998e-05
   6345, 0.000484999997, 7.50000036e-05
   6346, 0.000484999997, 7.00000019e-05
   6347, 0.000484999997, 6.50000002e-05
   6348, 0.000484999997, 5.99999985e-05
   6349, 0.000484999997, 5.50000004e-05
   6350, 0.000484999997, 4.99999987e-05
   6351, 0.000484999997, 4.50000007e-05
   6352, 0.000484999997, 3.9999999e-05
   6353, 0.000484999997, 3.50000009e-05
   6354, 0.000484999997, 2.99999992e-05
   6355, 0.000484999997, 2.49999994e-05
   6356, 0.000484999997, 1.99999995e-05
   6357, 0.000484999997, 1.49999996e-05
   6358, 0.000484999997, 9.99999975e-06
   6359, 0.000484999997, 4.99999987e-06
   6360, 0.000490000006, 0.000195000001
   6361, 0.000490000006, 0.000190000006
   6362, 0.000490000006, 0.000184999997
   6363, 0.000490000006, 0.000180000003
   6364, 0.000490000006, 0.000174999994
   6365, 0.000490000006, 0.000169999999
   6366, 0.000490000006, 0.000165000005
   6367, 0.000490000006, 0.000159999996
   6368, 0.000490000006, 0.000155000002
   6369, 0.000490000006, 0.000150000007
   6370, 0.000490000006, 0.000144999998
   6371, 0.000490000006, 0.000140000004
   6372, 0.000490000006, 0.000134999995
   6373, 0.000490000006,      0.00013
   6374, 0.000490000006, 0.000125000006
   6375, 0.000490000006, 0.000119999997
   6376, 0.000490000006, 0.000115000003
   6377, 0.000490000006, 0.000110000001
   6378, 0.000490000006, 0.000104999999
   6379, 0.000490000006, 9.99999975e-05
   6380, 0.000490000006, 9.50000031e-05
   6381, 0.000490000006, 9.00000014e-05
   6382, 0.000490000006, 8.49999997e-05
   6383, 0.000490000006, 7.9999998e-05
   6384, 0.000490000006, 7.50000036e-05
   6385, 0.000490000006, 7.00000019e-05
   6386, 0.000490000006, 6.50000002e-05
   6387, 0.000490000006, 5.99999985e-05
   6388, 0.000490000006, 5.50000004e-05
   6389, 0.000490000006, 4.99999987e-05
   6390, 0.000490000006, 4.50000007e-05
   6391, 0.000490000006, 3.9999999e-05
   6392, 0.000490000006, 3.50000009e-05
   6393, 0.000490000006, 2.99999992e-05
   6394, 0.000490000006, 2.49999994e-05
   6395, 0.000490000006, 1.99999995e-05
   6396, 0.000490000006, 1.49999996e-05
   6397, 0.000490000006, 9.99999975e-06
   6398, 0.000490000006, 4.99999987e-06
   6399, 0.000494999986, 0.000195000001
   6400, 0.000494999986, 0.000190000006
   6401, 0.000494999986, 0.000184999997
   6402, 0.000494999986, 0.000180000003
   6403, 0.000494999986, 0.000174999994
   6404, 0.000494999986, 0.000169999999
   6405, 0.000494999986, 0.000165000005
   6406, 0.000494999986, 0.000159999996
   6407, 0.000494999986, 0.000155000002
   6408, 0.000494999986, 0.000150000007
   6409, 0.000494999986, 0.000144999998
   6410, 0.000494999986, 0.000140000004
   6411, 0.000494999986, 0.000134999995
   6412, 0.000494999986,      0.00013
   6413, 0.000494999986, 0.000125000006
   6414, 0.000494999986, 0.000119999997
   6415, 0.000494999986, 0.000115000003
   6416, 0.000494999986, 0.000110000001
   6417, 0.000494999986, 0.000104999999
   6418, 0.000494999986, 9.99999975e-05
   6419, 0.000494999986, 9.50000031e-05
   6420, 0.000494999986, 9.00000014e-05
   6421, 0.000494999986, 8.49999997e-05
   6422, 0.000494999986, 7.9999998e-05
   6423, 0.000494999986, 7.50000036e-05
   6424, 0.000494999986, 7.00000019e-05
   6425, 0.000494999986, 6.50000002e-05
   6426, 0.000494999986, 5.99999985e-05
   6427, 0.000494999986, 5.50000004e-05
   6428, 0.000494999986, 4.99999987e-05
   6429, 0.000494999986, 4.50000007e-05
   6430, 0.000494999986, 3.9999999e-05
   6431, 0.000494999986, 3.50000009e-05
   6432, 0.000494999986, 2.99999992e-05
   6433, 0.000494999986, 2.49999994e-05
   6434, 0.000494999986, 1.99999995e-05
   6435, 0.000494999986, 1.49999996e-05
   6436, 0.000494999986, 9.99999975e-06
   6437, 0.000494999986, 4.99999987e-06
*Element, type=CPE4R
   1,    1,    9,  471,  244
   2,    9,   10,  472,  471
   3,   10,   11,  473,  472
   4,   11,   12,  474,  473
   5,   12,   13,  475,  474
   6,   13,   14,  476,  475
   7,   14,   15,  477,  476
   8,   15,   16,  478,  477
   9,   16,   17,  479,  478
  10,   17,   18,  480,  479
  11,   18,   19,  481,  480
  12,   19,   20,  482,  481
  13,   20,   21,  483,  482
  14,   21,   22,  484,  483
  15,   22,   23,  485,  484
  16,   23,   24,  486,  485
  17,   24,   25,  487,  486
  18,   25,   26,  488,  487
  19,   26,   27,  489,  488
  20,   27,   28,  490,  489
  21,   28,   29,  491,  490
  22,   29,   30,  492,  491
  23,   30,   31,  493,  492
  24,   31,   32,  494,  493
  25,   32,   33,  495,  494
  26,   33,   34,  496,  495
  27,   34,   35,  497,  496
  28,   35,   36,  498,  497
  29,   36,   37,  499,  498
  30,   37,   38,  500,  499
  31,   38,   39,  501,  500
  32,   39,   40,  502,  501
  33,   40,   41,  503,  502
  34,   41,   42,  504,  503
  35,   42,   43,  505,  504
  36,   43,   44,  506,  505
  37,   44,   45,  507,  506
  38,   45,   46,  508,  507
  39,   46,   47,  509,  508
  40,   47,    2,   48,  509
  41,  244,  471,  510,  243
  42,  471,  472,  511,  510
  43,  472,  473,  512,  511
  44,  473,  474,  513,  512
  45,  474,  475,  514,  513
  46,  475,  476,  515,  514
  47,  476,  477,  516,  515
  48,  477,  478,  517,  516
  49,  478,  479,  518,  517
  50,  479,  480,  519,  518
  51,  480,  481,  520,  519
  52,  481,  482,  521,  520
  53,  482,  483,  522,  521
  54,  483,  484,  523,  522
  55,  484,  485,  524,  523
  56,  485,  486,  525,  524
  57,  486,  487,  526,  525
  58,  487,  488,  527,  526
  59,  488,  489,  528,  527
  60,  489,  490,  529,  528
  61,  490,  491,  530,  529
  62,  491,  492,  531,  530
  63,  492,  493,  532,  531
  64,  493,  494,  533,  532
  65,  494,  495,  534,  533
  66,  495,  496,  535,  534
  67,  496,  497,  536,  535
  68,  497,  498,  537,  536
  69,  498,  499,  538,  537
  70,  499,  500,  539,  538
  71,  500,  501,  540,  539
  72,  501,  502,  541,  540
  73,  502,  503,  542,  541
  74,  503,  504,  543,  542
  75,  504,  505,  544,  543
  76,  505,  506,  545,  544
  77,  506,  507,  546,  545
  78,  507,  508,  547,  546
  79,  508,  509,  548,  547
  80,  509,   48,   49,  548
  81,  243,  510,  549,  242
  82,  510,  511,  550,  549
  83,  511,  512,  551,  550
  84,  512,  513,  552,  551
  85,  513,  514,  553,  552
  86,  514,  515,  554,  553
  87,  515,  516,  555,  554
  88,  516,  517,  556,  555
  89,  517,  518,  557,  556
  90,  518,  519,  558,  557
  91,  519,  520,  559,  558
  92,  520,  521,  560,  559
  93,  521,  522,  561,  560
  94,  522,  523,  562,  561
  95,  523,  524,  563,  562
  96,  524,  525,  564,  563
  97,  525,  526,  565,  564
  98,  526,  527,  566,  565
  99,  527,  528,  567,  566
 100,  528,  529,  568,  567
 101,  529,  530,  569,  568
 102,  530,  531,  570,  569
 103,  531,  532,  571,  570
 104,  532,  533,  572,  571
 105,  533,  534,  573,  572
 106,  534,  535,  574,  573
 107,  535,  536,  575,  574
 108,  536,  537,  576,  575
 109,  537,  538,  577,  576
 110,  538,  539,  578,  577
 111,  539,  540,  579,  578
 112,  540,  541,  580,  579
 113,  541,  542,  581,  580
 114,  542,  543,  582,  581
 115,  543,  544,  583,  582
 116,  544,  545,  584,  583
 117,  545,  546,  585,  584
 118,  546,  547,  586,  585
 119,  547,  548,  587,  586
 120,  548,   49,   50,  587
 121,  242,  549,  588,  241
 122,  549,  550,  589,  588
 123,  550,  551,  590,  589
 124,  551,  552,  591,  590
 125,  552,  553,  592,  591
 126,  553,  554,  593,  592
 127,  554,  555,  594,  593
 128,  555,  556,  595,  594
 129,  556,  557,  596,  595
 130,  557,  558,  597,  596
 131,  558,  559,  598,  597
 132,  559,  560,  599,  598
 133,  560,  561,  600,  599
 134,  561,  562,  601,  600
 135,  562,  563,  602,  601
 136,  563,  564,  603,  602
 137,  564,  565,  604,  603
 138,  565,  566,  605,  604
 139,  566,  567,  606,  605
 140,  567,  568,  607,  606
 141,  568,  569,  608,  607
 142,  569,  570,  609,  608
 143,  570,  571,  610,  609
 144,  571,  572,  611,  610
 145,  572,  573,  612,  611
 146,  573,  574,  613,  612
 147,  574,  575,  614,  613
 148,  575,  576,  615,  614
 149,  576,  577,  616,  615
 150,  577,  578,  617,  616
 151,  578,  579,  618,  617
 152,  579,  580,  619,  618
 153,  580,  581,  620,  619
 154,  581,  582,  621,  620
 155,  582,  583,  622,  621
 156,  583,  584,  623,  622
 157,  584,  585,  624,  623
 158,  585,  586,  625,  624
 159,  586,  587,  626,  625
 160,  587,   50,   51,  626
 161,  241,  588,  627,  240
 162,  588,  589,  628,  627
 163,  589,  590,  629,  628
 164,  590,  591,  630,  629
 165,  591,  592,  631,  630
 166,  592,  593,  632,  631
 167,  593,  594,  633,  632
 168,  594,  595,  634,  633
 169,  595,  596,  635,  634
 170,  596,  597,  636,  635
 171,  597,  598,  637,  636
 172,  598,  599,  638,  637
 173,  599,  600,  639,  638
 174,  600,  601,  640,  639
 175,  601,  602,  641,  640
 176,  602,  603,  642,  641
 177,  603,  604,  643,  642
 178,  604,  605,  644,  643
 179,  605,  606,  645,  644
 180,  606,  607,  646,  645
 181,  607,  608,  647,  646
 182,  608,  609,  648,  647
 183,  609,  610,  649,  648
 184,  610,  611,  650,  649
 185,  611,  612,  651,  650
 186,  612,  613,  652,  651
 187,  613,  614,  653,  652
 188,  614,  615,  654,  653
 189,  615,  616,  655,  654
 190,  616,  617,  656,  655
 191,  617,  618,  657,  656
 192,  618,  619,  658,  657
 193,  619,  620,  659,  658
 194,  620,  621,  660,  659
 195,  621,  622,  661,  660
 196,  622,  623,  662,  661
 197,  623,  624,  663,  662
 198,  624,  625,  664,  663
 199,  625,  626,  665,  664
 200,  626,   51,   52,  665
 201,  240,  627,  666,  239
 202,  627,  628,  667,  666
 203,  628,  629,  668,  667
 204,  629,  630,  669,  668
 205,  630,  631,  670,  669
 206,  631,  632,  671,  670
 207,  632,  633,  672,  671
 208,  633,  634,  673,  672
 209,  634,  635,  674,  673
 210,  635,  636,  675,  674
 211,  636,  637,  676,  675
 212,  637,  638,  677,  676
 213,  638,  639,  678,  677
 214,  639,  640,  679,  678
 215,  640,  641,  680,  679
 216,  641,  642,  681,  680
 217,  642,  643,  682,  681
 218,  643,  644,  683,  682
 219,  644,  645,  684,  683
 220,  645,  646,  685,  684
 221,  646,  647,  686,  685
 222,  647,  648,  687,  686
 223,  648,  649,  688,  687
 224,  649,  650,  689,  688
 225,  650,  651,  690,  689
 226,  651,  652,  691,  690
 227,  652,  653,  692,  691
 228,  653,  654,  693,  692
 229,  654,  655,  694,  693
 230,  655,  656,  695,  694
 231,  656,  657,  696,  695
 232,  657,  658,  697,  696
 233,  658,  659,  698,  697
 234,  659,  660,  699,  698
 235,  660,  661,  700,  699
 236,  661,  662,  701,  700
 237,  662,  663,  702,  701
 238,  663,  664,  703,  702
 239,  664,  665,  704,  703
 240,  665,   52,   53,  704
 241,  239,  666,  705,  238
 242,  666,  667,  706,  705
 243,  667,  668,  707,  706
 244,  668,  669,  708,  707
 245,  669,  670,  709,  708
 246,  670,  671,  710,  709
 247,  671,  672,  711,  710
 248,  672,  673,  712,  711
 249,  673,  674,  713,  712
 250,  674,  675,  714,  713
 251,  675,  676,  715,  714
 252,  676,  677,  716,  715
 253,  677,  678,  717,  716
 254,  678,  679,  718,  717
 255,  679,  680,  719,  718
 256,  680,  681,  720,  719
 257,  681,  682,  721,  720
 258,  682,  683,  722,  721
 259,  683,  684,  723,  722
 260,  684,  685,  724,  723
 261,  685,  686,  725,  724
 262,  686,  687,  726,  725
 263,  687,  688,  727,  726
 264,  688,  689,  728,  727
 265,  689,  690,  729,  728
 266,  690,  691,  730,  729
 267,  691,  692,  731,  730
 268,  692,  693,  732,  731
 269,  693,  694,  733,  732
 270,  694,  695,  734,  733
 271,  695,  696,  735,  734
 272,  696,  697,  736,  735
 273,  697,  698,  737,  736
 274,  698,  699,  738,  737
 275,  699,  700,  739,  738
 276,  700,  701,  740,  739
 277,  701,  702,  741,  740
 278,  702,  703,  742,  741
 279,  703,  704,  743,  742
 280,  704,   53,   54,  743
 281,  238,  705,  744,  237
 282,  705,  706,  745,  744
 283,  706,  707,  746,  745
 284,  707,  708,  747,  746
 285,  708,  709,  748,  747
 286,  709,  710,  749,  748
 287,  710,  711,  750,  749
 288,  711,  712,  751,  750
 289,  712,  713,  752,  751
 290,  713,  714,  753,  752
 291,  714,  715,  754,  753
 292,  715,  716,  755,  754
 293,  716,  717,  756,  755
 294,  717,  718,  757,  756
 295,  718,  719,  758,  757
 296,  719,  720,  759,  758
 297,  720,  721,  760,  759
 298,  721,  722,  761,  760
 299,  722,  723,  762,  761
 300,  723,  724,  763,  762
 301,  724,  725,  764,  763
 302,  725,  726,  765,  764
 303,  726,  727,  766,  765
 304,  727,  728,  767,  766
 305,  728,  729,  768,  767
 306,  729,  730,  769,  768
 307,  730,  731,  770,  769
 308,  731,  732,  771,  770
 309,  732,  733,  772,  771
 310,  733,  734,  773,  772
 311,  734,  735,  774,  773
 312,  735,  736,  775,  774
 313,  736,  737,  776,  775
 314,  737,  738,  777,  776
 315,  738,  739,  778,  777
 316,  739,  740,  779,  778
 317,  740,  741,  780,  779
 318,  741,  742,  781,  780
 319,  742,  743,  782,  781
 320,  743,   54,   55,  782
 321,  237,  744,  783,  236
 322,  744,  745,  784,  783
 323,  745,  746,  785,  784
 324,  746,  747,  786,  785
 325,  747,  748,  787,  786
 326,  748,  749,  788,  787
 327,  749,  750,  789,  788
 328,  750,  751,  790,  789
 329,  751,  752,  791,  790
 330,  752,  753,  792,  791
 331,  753,  754,  793,  792
 332,  754,  755,  794,  793
 333,  755,  756,  795,  794
 334,  756,  757,  796,  795
 335,  757,  758,  797,  796
 336,  758,  759,  798,  797
 337,  759,  760,  799,  798
 338,  760,  761,  800,  799
 339,  761,  762,  801,  800
 340,  762,  763,  802,  801
 341,  763,  764,  803,  802
 342,  764,  765,  804,  803
 343,  765,  766,  805,  804
 344,  766,  767,  806,  805
 345,  767,  768,  807,  806
 346,  768,  769,  808,  807
 347,  769,  770,  809,  808
 348,  770,  771,  810,  809
 349,  771,  772,  811,  810
 350,  772,  773,  812,  811
 351,  773,  774,  813,  812
 352,  774,  775,  814,  813
 353,  775,  776,  815,  814
 354,  776,  777,  816,  815
 355,  777,  778,  817,  816
 356,  778,  779,  818,  817
 357,  779,  780,  819,  818
 358,  780,  781,  820,  819
 359,  781,  782,  821,  820
 360,  782,   55,   56,  821
 361,  236,  783,  822,  235
 362,  783,  784,  823,  822
 363,  784,  785,  824,  823
 364,  785,  786,  825,  824
 365,  786,  787,  826,  825
 366,  787,  788,  827,  826
 367,  788,  789,  828,  827
 368,  789,  790,  829,  828
 369,  790,  791,  830,  829
 370,  791,  792,  831,  830
 371,  792,  793,  832,  831
 372,  793,  794,  833,  832
 373,  794,  795,  834,  833
 374,  795,  796,  835,  834
 375,  796,  797,  836,  835
 376,  797,  798,  837,  836
 377,  798,  799,  838,  837
 378,  799,  800,  839,  838
 379,  800,  801,  840,  839
 380,  801,  802,  841,  840
 381,  802,  803,  842,  841
 382,  803,  804,  843,  842
 383,  804,  805,  844,  843
 384,  805,  806,  845,  844
 385,  806,  807,  846,  845
 386,  807,  808,  847,  846
 387,  808,  809,  848,  847
 388,  809,  810,  849,  848
 389,  810,  811,  850,  849
 390,  811,  812,  851,  850
 391,  812,  813,  852,  851
 392,  813,  814,  853,  852
 393,  814,  815,  854,  853
 394,  815,  816,  855,  854
 395,  816,  817,  856,  855
 396,  817,  818,  857,  856
 397,  818,  819,  858,  857
 398,  819,  820,  859,  858
 399,  820,  821,  860,  859
 400,  821,   56,   57,  860
 401,  235,  822,  861,  234
 402,  822,  823,  862,  861
 403,  823,  824,  863,  862
 404,  824,  825,  864,  863
 405,  825,  826,  865,  864
 406,  826,  827,  866,  865
 407,  827,  828,  867,  866
 408,  828,  829,  868,  867
 409,  829,  830,  869,  868
 410,  830,  831,  870,  869
 411,  831,  832,  871,  870
 412,  832,  833,  872,  871
 413,  833,  834,  873,  872
 414,  834,  835,  874,  873
 415,  835,  836,  875,  874
 416,  836,  837,  876,  875
 417,  837,  838,  877,  876
 418,  838,  839,  878,  877
 419,  839,  840,  879,  878
 420,  840,  841,  880,  879
 421,  841,  842,  881,  880
 422,  842,  843,  882,  881
 423,  843,  844,  883,  882
 424,  844,  845,  884,  883
 425,  845,  846,  885,  884
 426,  846,  847,  886,  885
 427,  847,  848,  887,  886
 428,  848,  849,  888,  887
 429,  849,  850,  889,  888
 430,  850,  851,  890,  889
 431,  851,  852,  891,  890
 432,  852,  853,  892,  891
 433,  853,  854,  893,  892
 434,  854,  855,  894,  893
 435,  855,  856,  895,  894
 436,  856,  857,  896,  895
 437,  857,  858,  897,  896
 438,  858,  859,  898,  897
 439,  859,  860,  899,  898
 440,  860,   57,   58,  899
 441,  234,  861,  900,  233
 442,  861,  862,  901,  900
 443,  862,  863,  902,  901
 444,  863,  864,  903,  902
 445,  864,  865,  904,  903
 446,  865,  866,  905,  904
 447,  866,  867,  906,  905
 448,  867,  868,  907,  906
 449,  868,  869,  908,  907
 450,  869,  870,  909,  908
 451,  870,  871,  910,  909
 452,  871,  872,  911,  910
 453,  872,  873,  912,  911
 454,  873,  874,  913,  912
 455,  874,  875,  914,  913
 456,  875,  876,  915,  914
 457,  876,  877,  916,  915
 458,  877,  878,  917,  916
 459,  878,  879,  918,  917
 460,  879,  880,  919,  918
 461,  880,  881,  920,  919
 462,  881,  882,  921,  920
 463,  882,  883,  922,  921
 464,  883,  884,  923,  922
 465,  884,  885,  924,  923
 466,  885,  886,  925,  924
 467,  886,  887,  926,  925
 468,  887,  888,  927,  926
 469,  888,  889,  928,  927
 470,  889,  890,  929,  928
 471,  890,  891,  930,  929
 472,  891,  892,  931,  930
 473,  892,  893,  932,  931
 474,  893,  894,  933,  932
 475,  894,  895,  934,  933
 476,  895,  896,  935,  934
 477,  896,  897,  936,  935
 478,  897,  898,  937,  936
 479,  898,  899,  938,  937
 480,  899,   58,   59,  938
 481,  233,  900,  939,  232
 482,  900,  901,  940,  939
 483,  901,  902,  941,  940
 484,  902,  903,  942,  941
 485,  903,  904,  943,  942
 486,  904,  905,  944,  943
 487,  905,  906,  945,  944
 488,  906,  907,  946,  945
 489,  907,  908,  947,  946
 490,  908,  909,  948,  947
 491,  909,  910,  949,  948
 492,  910,  911,  950,  949
 493,  911,  912,  951,  950
 494,  912,  913,  952,  951
 495,  913,  914,  953,  952
 496,  914,  915,  954,  953
 497,  915,  916,  955,  954
 498,  916,  917,  956,  955
 499,  917,  918,  957,  956
 500,  918,  919,  958,  957
 501,  919,  920,  959,  958
 502,  920,  921,  960,  959
 503,  921,  922,  961,  960
 504,  922,  923,  962,  961
 505,  923,  924,  963,  962
 506,  924,  925,  964,  963
 507,  925,  926,  965,  964
 508,  926,  927,  966,  965
 509,  927,  928,  967,  966
 510,  928,  929,  968,  967
 511,  929,  930,  969,  968
 512,  930,  931,  970,  969
 513,  931,  932,  971,  970
 514,  932,  933,  972,  971
 515,  933,  934,  973,  972
 516,  934,  935,  974,  973
 517,  935,  936,  975,  974
 518,  936,  937,  976,  975
 519,  937,  938,  977,  976
 520,  938,   59,   60,  977
 521,  232,  939,  978,  231
 522,  939,  940,  979,  978
 523,  940,  941,  980,  979
 524,  941,  942,  981,  980
 525,  942,  943,  982,  981
 526,  943,  944,  983,  982
 527,  944,  945,  984,  983
 528,  945,  946,  985,  984
 529,  946,  947,  986,  985
 530,  947,  948,  987,  986
 531,  948,  949,  988,  987
 532,  949,  950,  989,  988
 533,  950,  951,  990,  989
 534,  951,  952,  991,  990
 535,  952,  953,  992,  991
 536,  953,  954,  993,  992
 537,  954,  955,  994,  993
 538,  955,  956,  995,  994
 539,  956,  957,  996,  995
 540,  957,  958,  997,  996
 541,  958,  959,  998,  997
 542,  959,  960,  999,  998
 543,  960,  961, 1000,  999
 544,  961,  962, 1001, 1000
 545,  962,  963, 1002, 1001
 546,  963,  964, 1003, 1002
 547,  964,  965, 1004, 1003
 548,  965,  966, 1005, 1004
 549,  966,  967, 1006, 1005
 550,  967,  968, 1007, 1006
 551,  968,  969, 1008, 1007
 552,  969,  970, 1009, 1008
 553,  970,  971, 1010, 1009
 554,  971,  972, 1011, 1010
 555,  972,  973, 1012, 1011
 556,  973,  974, 1013, 1012
 557,  974,  975, 1014, 1013
 558,  975,  976, 1015, 1014
 559,  976,  977, 1016, 1015
 560,  977,   60,   61, 1016
 561,  231,  978, 1017,  230
 562,  978,  979, 1018, 1017
 563,  979,  980, 1019, 1018
 564,  980,  981, 1020, 1019
 565,  981,  982, 1021, 1020
 566,  982,  983, 1022, 1021
 567,  983,  984, 1023, 1022
 568,  984,  985, 1024, 1023
 569,  985,  986, 1025, 1024
 570,  986,  987, 1026, 1025
 571,  987,  988, 1027, 1026
 572,  988,  989, 1028, 1027
 573,  989,  990, 1029, 1028
 574,  990,  991, 1030, 1029
 575,  991,  992, 1031, 1030
 576,  992,  993, 1032, 1031
 577,  993,  994, 1033, 1032
 578,  994,  995, 1034, 1033
 579,  995,  996, 1035, 1034
 580,  996,  997, 1036, 1035
 581,  997,  998, 1037, 1036
 582,  998,  999, 1038, 1037
 583,  999, 1000, 1039, 1038
 584, 1000, 1001, 1040, 1039
 585, 1001, 1002, 1041, 1040
 586, 1002, 1003, 1042, 1041
 587, 1003, 1004, 1043, 1042
 588, 1004, 1005, 1044, 1043
 589, 1005, 1006, 1045, 1044
 590, 1006, 1007, 1046, 1045
 591, 1007, 1008, 1047, 1046
 592, 1008, 1009, 1048, 1047
 593, 1009, 1010, 1049, 1048
 594, 1010, 1011, 1050, 1049
 595, 1011, 1012, 1051, 1050
 596, 1012, 1013, 1052, 1051
 597, 1013, 1014, 1053, 1052
 598, 1014, 1015, 1054, 1053
 599, 1015, 1016, 1055, 1054
 600, 1016,   61,   62, 1055
 601,  230, 1017, 1056,  229
 602, 1017, 1018, 1057, 1056
 603, 1018, 1019, 1058, 1057
 604, 1019, 1020, 1059, 1058
 605, 1020, 1021, 1060, 1059
 606, 1021, 1022, 1061, 1060
 607, 1022, 1023, 1062, 1061
 608, 1023, 1024, 1063, 1062
 609, 1024, 1025, 1064, 1063
 610, 1025, 1026, 1065, 1064
 611, 1026, 1027, 1066, 1065
 612, 1027, 1028, 1067, 1066
 613, 1028, 1029, 1068, 1067
 614, 1029, 1030, 1069, 1068
 615, 1030, 1031, 1070, 1069
 616, 1031, 1032, 1071, 1070
 617, 1032, 1033, 1072, 1071
 618, 1033, 1034, 1073, 1072
 619, 1034, 1035, 1074, 1073
 620, 1035, 1036, 1075, 1074
 621, 1036, 1037, 1076, 1075
 622, 1037, 1038, 1077, 1076
 623, 1038, 1039, 1078, 1077
 624, 1039, 1040, 1079, 1078
 625, 1040, 1041, 1080, 1079
 626, 1041, 1042, 1081, 1080
 627, 1042, 1043, 1082, 1081
 628, 1043, 1044, 1083, 1082
 629, 1044, 1045, 1084, 1083
 630, 1045, 1046, 1085, 1084
 631, 1046, 1047, 1086, 1085
 632, 1047, 1048, 1087, 1086
 633, 1048, 1049, 1088, 1087
 634, 1049, 1050, 1089, 1088
 635, 1050, 1051, 1090, 1089
 636, 1051, 1052, 1091, 1090
 637, 1052, 1053, 1092, 1091
 638, 1053, 1054, 1093, 1092
 639, 1054, 1055, 1094, 1093
 640, 1055,   62,   63, 1094
 641,  229, 1056, 1095,  228
 642, 1056, 1057, 1096, 1095
 643, 1057, 1058, 1097, 1096
 644, 1058, 1059, 1098, 1097
 645, 1059, 1060, 1099, 1098
 646, 1060, 1061, 1100, 1099
 647, 1061, 1062, 1101, 1100
 648, 1062, 1063, 1102, 1101
 649, 1063, 1064, 1103, 1102
 650, 1064, 1065, 1104, 1103
 651, 1065, 1066, 1105, 1104
 652, 1066, 1067, 1106, 1105
 653, 1067, 1068, 1107, 1106
 654, 1068, 1069, 1108, 1107
 655, 1069, 1070, 1109, 1108
 656, 1070, 1071, 1110, 1109
 657, 1071, 1072, 1111, 1110
 658, 1072, 1073, 1112, 1111
 659, 1073, 1074, 1113, 1112
 660, 1074, 1075, 1114, 1113
 661, 1075, 1076, 1115, 1114
 662, 1076, 1077, 1116, 1115
 663, 1077, 1078, 1117, 1116
 664, 1078, 1079, 1118, 1117
 665, 1079, 1080, 1119, 1118
 666, 1080, 1081, 1120, 1119
 667, 1081, 1082, 1121, 1120
 668, 1082, 1083, 1122, 1121
 669, 1083, 1084, 1123, 1122
 670, 1084, 1085, 1124, 1123
 671, 1085, 1086, 1125, 1124
 672, 1086, 1087, 1126, 1125
 673, 1087, 1088, 1127, 1126
 674, 1088, 1089, 1128, 1127
 675, 1089, 1090, 1129, 1128
 676, 1090, 1091, 1130, 1129
 677, 1091, 1092, 1131, 1130
 678, 1092, 1093, 1132, 1131
 679, 1093, 1094, 1133, 1132
 680, 1094,   63,   64, 1133
 681,  228, 1095, 1134,  227
 682, 1095, 1096, 1135, 1134
 683, 1096, 1097, 1136, 1135
 684, 1097, 1098, 1137, 1136
 685, 1098, 1099, 1138, 1137
 686, 1099, 1100, 1139, 1138
 687, 1100, 1101, 1140, 1139
 688, 1101, 1102, 1141, 1140
 689, 1102, 1103, 1142, 1141
 690, 1103, 1104, 1143, 1142
 691, 1104, 1105, 1144, 1143
 692, 1105, 1106, 1145, 1144
 693, 1106, 1107, 1146, 1145
 694, 1107, 1108, 1147, 1146
 695, 1108, 1109, 1148, 1147
 696, 1109, 1110, 1149, 1148
 697, 1110, 1111, 1150, 1149
 698, 1111, 1112, 1151, 1150
 699, 1112, 1113, 1152, 1151
 700, 1113, 1114, 1153, 1152
 701, 1114, 1115, 1154, 1153
 702, 1115, 1116, 1155, 1154
 703, 1116, 1117, 1156, 1155
 704, 1117, 1118, 1157, 1156
 705, 1118, 1119, 1158, 1157
 706, 1119, 1120, 1159, 1158
 707, 1120, 1121, 1160, 1159
 708, 1121, 1122, 1161, 1160
 709, 1122, 1123, 1162, 1161
 710, 1123, 1124, 1163, 1162
 711, 1124, 1125, 1164, 1163
 712, 1125, 1126, 1165, 1164
 713, 1126, 1127, 1166, 1165
 714, 1127, 1128, 1167, 1166
 715, 1128, 1129, 1168, 1167
 716, 1129, 1130, 1169, 1168
 717, 1130, 1131, 1170, 1169
 718, 1131, 1132, 1171, 1170
 719, 1132, 1133, 1172, 1171
 720, 1133,   64,   65, 1172
 721,  227, 1134, 1173,  226
 722, 1134, 1135, 1174, 1173
 723, 1135, 1136, 1175, 1174
 724, 1136, 1137, 1176, 1175
 725, 1137, 1138, 1177, 1176
 726, 1138, 1139, 1178, 1177
 727, 1139, 1140, 1179, 1178
 728, 1140, 1141, 1180, 1179
 729, 1141, 1142, 1181, 1180
 730, 1142, 1143, 1182, 1181
 731, 1143, 1144, 1183, 1182
 732, 1144, 1145, 1184, 1183
 733, 1145, 1146, 1185, 1184
 734, 1146, 1147, 1186, 1185
 735, 1147, 1148, 1187, 1186
 736, 1148, 1149, 1188, 1187
 737, 1149, 1150, 1189, 1188
 738, 1150, 1151, 1190, 1189
 739, 1151, 1152, 1191, 1190
 740, 1152, 1153, 1192, 1191
 741, 1153, 1154, 1193, 1192
 742, 1154, 1155, 1194, 1193
 743, 1155, 1156, 1195, 1194
 744, 1156, 1157, 1196, 1195
 745, 1157, 1158, 1197, 1196
 746, 1158, 1159, 1198, 1197
 747, 1159, 1160, 1199, 1198
 748, 1160, 1161, 1200, 1199
 749, 1161, 1162, 1201, 1200
 750, 1162, 1163, 1202, 1201
 751, 1163, 1164, 1203, 1202
 752, 1164, 1165, 1204, 1203
 753, 1165, 1166, 1205, 1204
 754, 1166, 1167, 1206, 1205
 755, 1167, 1168, 1207, 1206
 756, 1168, 1169, 1208, 1207
 757, 1169, 1170, 1209, 1208
 758, 1170, 1171, 1210, 1209
 759, 1171, 1172, 1211, 1210
 760, 1172,   65,   66, 1211
 761,  226, 1173, 1212,  225
 762, 1173, 1174, 1213, 1212
 763, 1174, 1175, 1214, 1213
 764, 1175, 1176, 1215, 1214
 765, 1176, 1177, 1216, 1215
 766, 1177, 1178, 1217, 1216
 767, 1178, 1179, 1218, 1217
 768, 1179, 1180, 1219, 1218
 769, 1180, 1181, 1220, 1219
 770, 1181, 1182, 1221, 1220
 771, 1182, 1183, 1222, 1221
 772, 1183, 1184, 1223, 1222
 773, 1184, 1185, 1224, 1223
 774, 1185, 1186, 1225, 1224
 775, 1186, 1187, 1226, 1225
 776, 1187, 1188, 1227, 1226
 777, 1188, 1189, 1228, 1227
 778, 1189, 1190, 1229, 1228
 779, 1190, 1191, 1230, 1229
 780, 1191, 1192, 1231, 1230
 781, 1192, 1193, 1232, 1231
 782, 1193, 1194, 1233, 1232
 783, 1194, 1195, 1234, 1233
 784, 1195, 1196, 1235, 1234
 785, 1196, 1197, 1236, 1235
 786, 1197, 1198, 1237, 1236
 787, 1198, 1199, 1238, 1237
 788, 1199, 1200, 1239, 1238
 789, 1200, 1201, 1240, 1239
 790, 1201, 1202, 1241, 1240
 791, 1202, 1203, 1242, 1241
 792, 1203, 1204, 1243, 1242
 793, 1204, 1205, 1244, 1243
 794, 1205, 1206, 1245, 1244
 795, 1206, 1207, 1246, 1245
 796, 1207, 1208, 1247, 1246
 797, 1208, 1209, 1248, 1247
 798, 1209, 1210, 1249, 1248
 799, 1210, 1211, 1250, 1249
 800, 1211,   66,   67, 1250
 801,  225, 1212, 1251,  224
 802, 1212, 1213, 1252, 1251
 803, 1213, 1214, 1253, 1252
 804, 1214, 1215, 1254, 1253
 805, 1215, 1216, 1255, 1254
 806, 1216, 1217, 1256, 1255
 807, 1217, 1218, 1257, 1256
 808, 1218, 1219, 1258, 1257
 809, 1219, 1220, 1259, 1258
 810, 1220, 1221, 1260, 1259
 811, 1221, 1222, 1261, 1260
 812, 1222, 1223, 1262, 1261
 813, 1223, 1224, 1263, 1262
 814, 1224, 1225, 1264, 1263
 815, 1225, 1226, 1265, 1264
 816, 1226, 1227, 1266, 1265
 817, 1227, 1228, 1267, 1266
 818, 1228, 1229, 1268, 1267
 819, 1229, 1230, 1269, 1268
 820, 1230, 1231, 1270, 1269
 821, 1231, 1232, 1271, 1270
 822, 1232, 1233, 1272, 1271
 823, 1233, 1234, 1273, 1272
 824, 1234, 1235, 1274, 1273
 825, 1235, 1236, 1275, 1274
 826, 1236, 1237, 1276, 1275
 827, 1237, 1238, 1277, 1276
 828, 1238, 1239, 1278, 1277
 829, 1239, 1240, 1279, 1278
 830, 1240, 1241, 1280, 1279
 831, 1241, 1242, 1281, 1280
 832, 1242, 1243, 1282, 1281
 833, 1243, 1244, 1283, 1282
 834, 1244, 1245, 1284, 1283
 835, 1245, 1246, 1285, 1284
 836, 1246, 1247, 1286, 1285
 837, 1247, 1248, 1287, 1286
 838, 1248, 1249, 1288, 1287
 839, 1249, 1250, 1289, 1288
 840, 1250,   67,   68, 1289
 841,  224, 1251, 1290,  223
 842, 1251, 1252, 1291, 1290
 843, 1252, 1253, 1292, 1291
 844, 1253, 1254, 1293, 1292
 845, 1254, 1255, 1294, 1293
 846, 1255, 1256, 1295, 1294
 847, 1256, 1257, 1296, 1295
 848, 1257, 1258, 1297, 1296
 849, 1258, 1259, 1298, 1297
 850, 1259, 1260, 1299, 1298
 851, 1260, 1261, 1300, 1299
 852, 1261, 1262, 1301, 1300
 853, 1262, 1263, 1302, 1301
 854, 1263, 1264, 1303, 1302
 855, 1264, 1265, 1304, 1303
 856, 1265, 1266, 1305, 1304
 857, 1266, 1267, 1306, 1305
 858, 1267, 1268, 1307, 1306
 859, 1268, 1269, 1308, 1307
 860, 1269, 1270, 1309, 1308
 861, 1270, 1271, 1310, 1309
 862, 1271, 1272, 1311, 1310
 863, 1272, 1273, 1312, 1311
 864, 1273, 1274, 1313, 1312
 865, 1274, 1275, 1314, 1313
 866, 1275, 1276, 1315, 1314
 867, 1276, 1277, 1316, 1315
 868, 1277, 1278, 1317, 1316
 869, 1278, 1279, 1318, 1317
 870, 1279, 1280, 1319, 1318
 871, 1280, 1281, 1320, 1319
 872, 1281, 1282, 1321, 1320
 873, 1282, 1283, 1322, 1321
 874, 1283, 1284, 1323, 1322
 875, 1284, 1285, 1324, 1323
 876, 1285, 1286, 1325, 1324
 877, 1286, 1287, 1326, 1325
 878, 1287, 1288, 1327, 1326
 879, 1288, 1289, 1328, 1327
 880, 1289,   68,   69, 1328
 881,  223, 1290, 1329,  222
 882, 1290, 1291, 1330, 1329
 883, 1291, 1292, 1331, 1330
 884, 1292, 1293, 1332, 1331
 885, 1293, 1294, 1333, 1332
 886, 1294, 1295, 1334, 1333
 887, 1295, 1296, 1335, 1334
 888, 1296, 1297, 1336, 1335
 889, 1297, 1298, 1337, 1336
 890, 1298, 1299, 1338, 1337
 891, 1299, 1300, 1339, 1338
 892, 1300, 1301, 1340, 1339
 893, 1301, 1302, 1341, 1340
 894, 1302, 1303, 1342, 1341
 895, 1303, 1304, 1343, 1342
 896, 1304, 1305, 1344, 1343
 897, 1305, 1306, 1345, 1344
 898, 1306, 1307, 1346, 1345
 899, 1307, 1308, 1347, 1346
 900, 1308, 1309, 1348, 1347
 901, 1309, 1310, 1349, 1348
 902, 1310, 1311, 1350, 1349
 903, 1311, 1312, 1351, 1350
 904, 1312, 1313, 1352, 1351
 905, 1313, 1314, 1353, 1352
 906, 1314, 1315, 1354, 1353
 907, 1315, 1316, 1355, 1354
 908, 1316, 1317, 1356, 1355
 909, 1317, 1318, 1357, 1356
 910, 1318, 1319, 1358, 1357
 911, 1319, 1320, 1359, 1358
 912, 1320, 1321, 1360, 1359
 913, 1321, 1322, 1361, 1360
 914, 1322, 1323, 1362, 1361
 915, 1323, 1324, 1363, 1362
 916, 1324, 1325, 1364, 1363
 917, 1325, 1326, 1365, 1364
 918, 1326, 1327, 1366, 1365
 919, 1327, 1328, 1367, 1366
 920, 1328,   69,   70, 1367
 921,  222, 1329, 1368,  221
 922, 1329, 1330, 1369, 1368
 923, 1330, 1331, 1370, 1369
 924, 1331, 1332, 1371, 1370
 925, 1332, 1333, 1372, 1371
 926, 1333, 1334, 1373, 1372
 927, 1334, 1335, 1374, 1373
 928, 1335, 1336, 1375, 1374
 929, 1336, 1337, 1376, 1375
 930, 1337, 1338, 1377, 1376
 931, 1338, 1339, 1378, 1377
 932, 1339, 1340, 1379, 1378
 933, 1340, 1341, 1380, 1379
 934, 1341, 1342, 1381, 1380
 935, 1342, 1343, 1382, 1381
 936, 1343, 1344, 1383, 1382
 937, 1344, 1345, 1384, 1383
 938, 1345, 1346, 1385, 1384
 939, 1346, 1347, 1386, 1385
 940, 1347, 1348, 1387, 1386
 941, 1348, 1349, 1388, 1387
 942, 1349, 1350, 1389, 1388
 943, 1350, 1351, 1390, 1389
 944, 1351, 1352, 1391, 1390
 945, 1352, 1353, 1392, 1391
 946, 1353, 1354, 1393, 1392
 947, 1354, 1355, 1394, 1393
 948, 1355, 1356, 1395, 1394
 949, 1356, 1357, 1396, 1395
 950, 1357, 1358, 1397, 1396
 951, 1358, 1359, 1398, 1397
 952, 1359, 1360, 1399, 1398
 953, 1360, 1361, 1400, 1399
 954, 1361, 1362, 1401, 1400
 955, 1362, 1363, 1402, 1401
 956, 1363, 1364, 1403, 1402
 957, 1364, 1365, 1404, 1403
 958, 1365, 1366, 1405, 1404
 959, 1366, 1367, 1406, 1405
 960, 1367,   70,   71, 1406
 961,  221, 1368, 1407,  220
 962, 1368, 1369, 1408, 1407
 963, 1369, 1370, 1409, 1408
 964, 1370, 1371, 1410, 1409
 965, 1371, 1372, 1411, 1410
 966, 1372, 1373, 1412, 1411
 967, 1373, 1374, 1413, 1412
 968, 1374, 1375, 1414, 1413
 969, 1375, 1376, 1415, 1414
 970, 1376, 1377, 1416, 1415
 971, 1377, 1378, 1417, 1416
 972, 1378, 1379, 1418, 1417
 973, 1379, 1380, 1419, 1418
 974, 1380, 1381, 1420, 1419
 975, 1381, 1382, 1421, 1420
 976, 1382, 1383, 1422, 1421
 977, 1383, 1384, 1423, 1422
 978, 1384, 1385, 1424, 1423
 979, 1385, 1386, 1425, 1424
 980, 1386, 1387, 1426, 1425
 981, 1387, 1388, 1427, 1426
 982, 1388, 1389, 1428, 1427
 983, 1389, 1390, 1429, 1428
 984, 1390, 1391, 1430, 1429
 985, 1391, 1392, 1431, 1430
 986, 1392, 1393, 1432, 1431
 987, 1393, 1394, 1433, 1432
 988, 1394, 1395, 1434, 1433
 989, 1395, 1396, 1435, 1434
 990, 1396, 1397, 1436, 1435
 991, 1397, 1398, 1437, 1436
 992, 1398, 1399, 1438, 1437
 993, 1399, 1400, 1439, 1438
 994, 1400, 1401, 1440, 1439
 995, 1401, 1402, 1441, 1440
 996, 1402, 1403, 1442, 1441
 997, 1403, 1404, 1443, 1442
 998, 1404, 1405, 1444, 1443
 999, 1405, 1406, 1445, 1444
1000, 1406,   71,   72, 1445
1001,  220, 1407, 1446,  219
1002, 1407, 1408, 1447, 1446
1003, 1408, 1409, 1448, 1447
1004, 1409, 1410, 1449, 1448
1005, 1410, 1411, 1450, 1449
1006, 1411, 1412, 1451, 1450
1007, 1412, 1413, 1452, 1451
1008, 1413, 1414, 1453, 1452
1009, 1414, 1415, 1454, 1453
1010, 1415, 1416, 1455, 1454
1011, 1416, 1417, 1456, 1455
1012, 1417, 1418, 1457, 1456
1013, 1418, 1419, 1458, 1457
1014, 1419, 1420, 1459, 1458
1015, 1420, 1421, 1460, 1459
1016, 1421, 1422, 1461, 1460
1017, 1422, 1423, 1462, 1461
1018, 1423, 1424, 1463, 1462
1019, 1424, 1425, 1464, 1463
1020, 1425, 1426, 1465, 1464
1021, 1426, 1427, 1466, 1465
1022, 1427, 1428, 1467, 1466
1023, 1428, 1429, 1468, 1467
1024, 1429, 1430, 1469, 1468
1025, 1430, 1431, 1470, 1469
1026, 1431, 1432, 1471, 1470
1027, 1432, 1433, 1472, 1471
1028, 1433, 1434, 1473, 1472
1029, 1434, 1435, 1474, 1473
1030, 1435, 1436, 1475, 1474
1031, 1436, 1437, 1476, 1475
1032, 1437, 1438, 1477, 1476
1033, 1438, 1439, 1478, 1477
1034, 1439, 1440, 1479, 1478
1035, 1440, 1441, 1480, 1479
1036, 1441, 1442, 1481, 1480
1037, 1442, 1443, 1482, 1481
1038, 1443, 1444, 1483, 1482
1039, 1444, 1445, 1484, 1483
1040, 1445,   72,   73, 1484
1041,  219, 1446, 1485,  218
1042, 1446, 1447, 1486, 1485
1043, 1447, 1448, 1487, 1486
1044, 1448, 1449, 1488, 1487
1045, 1449, 1450, 1489, 1488
1046, 1450, 1451, 1490, 1489
1047, 1451, 1452, 1491, 1490
1048, 1452, 1453, 1492, 1491
1049, 1453, 1454, 1493, 1492
1050, 1454, 1455, 1494, 1493
1051, 1455, 1456, 1495, 1494
1052, 1456, 1457, 1496, 1495
1053, 1457, 1458, 1497, 1496
1054, 1458, 1459, 1498, 1497
1055, 1459, 1460, 1499, 1498
1056, 1460, 1461, 1500, 1499
1057, 1461, 1462, 1501, 1500
1058, 1462, 1463, 1502, 1501
1059, 1463, 1464, 1503, 1502
1060, 1464, 1465, 1504, 1503
1061, 1465, 1466, 1505, 1504
1062, 1466, 1467, 1506, 1505
1063, 1467, 1468, 1507, 1506
1064, 1468, 1469, 1508, 1507
1065, 1469, 1470, 1509, 1508
1066, 1470, 1471, 1510, 1509
1067, 1471, 1472, 1511, 1510
1068, 1472, 1473, 1512, 1511
1069, 1473, 1474, 1513, 1512
1070, 1474, 1475, 1514, 1513
1071, 1475, 1476, 1515, 1514
1072, 1476, 1477, 1516, 1515
1073, 1477, 1478, 1517, 1516
1074, 1478, 1479, 1518, 1517
1075, 1479, 1480, 1519, 1518
1076, 1480, 1481, 1520, 1519
1077, 1481, 1482, 1521, 1520
1078, 1482, 1483, 1522, 1521
1079, 1483, 1484, 1523, 1522
1080, 1484,   73,   74, 1523
1081,  218, 1485, 1524,  217
1082, 1485, 1486, 1525, 1524
1083, 1486, 1487, 1526, 1525
1084, 1487, 1488, 1527, 1526
1085, 1488, 1489, 1528, 1527
1086, 1489, 1490, 1529, 1528
1087, 1490, 1491, 1530, 1529
1088, 1491, 1492, 1531, 1530
1089, 1492, 1493, 1532, 1531
1090, 1493, 1494, 1533, 1532
1091, 1494, 1495, 1534, 1533
1092, 1495, 1496, 1535, 1534
1093, 1496, 1497, 1536, 1535
1094, 1497, 1498, 1537, 1536
1095, 1498, 1499, 1538, 1537
1096, 1499, 1500, 1539, 1538
1097, 1500, 1501, 1540, 1539
1098, 1501, 1502, 1541, 1540
1099, 1502, 1503, 1542, 1541
1100, 1503, 1504, 1543, 1542
1101, 1504, 1505, 1544, 1543
1102, 1505, 1506, 1545, 1544
1103, 1506, 1507, 1546, 1545
1104, 1507, 1508, 1547, 1546
1105, 1508, 1509, 1548, 1547
1106, 1509, 1510, 1549, 1548
1107, 1510, 1511, 1550, 1549
1108, 1511, 1512, 1551, 1550
1109, 1512, 1513, 1552, 1551
1110, 1513, 1514, 1553, 1552
1111, 1514, 1515, 1554, 1553
1112, 1515, 1516, 1555, 1554
1113, 1516, 1517, 1556, 1555
1114, 1517, 1518, 1557, 1556
1115, 1518, 1519, 1558, 1557
1116, 1519, 1520, 1559, 1558
1117, 1520, 1521, 1560, 1559
1118, 1521, 1522, 1561, 1560
1119, 1522, 1523, 1562, 1561
1120, 1523,   74,   75, 1562
1121,  217, 1524, 1563,  216
1122, 1524, 1525, 1564, 1563
1123, 1525, 1526, 1565, 1564
1124, 1526, 1527, 1566, 1565
1125, 1527, 1528, 1567, 1566
1126, 1528, 1529, 1568, 1567
1127, 1529, 1530, 1569, 1568
1128, 1530, 1531, 1570, 1569
1129, 1531, 1532, 1571, 1570
1130, 1532, 1533, 1572, 1571
1131, 1533, 1534, 1573, 1572
1132, 1534, 1535, 1574, 1573
1133, 1535, 1536, 1575, 1574
1134, 1536, 1537, 1576, 1575
1135, 1537, 1538, 1577, 1576
1136, 1538, 1539, 1578, 1577
1137, 1539, 1540, 1579, 1578
1138, 1540, 1541, 1580, 1579
1139, 1541, 1542, 1581, 1580
1140, 1542, 1543, 1582, 1581
1141, 1543, 1544, 1583, 1582
1142, 1544, 1545, 1584, 1583
1143, 1545, 1546, 1585, 1584
1144, 1546, 1547, 1586, 1585
1145, 1547, 1548, 1587, 1586
1146, 1548, 1549, 1588, 1587
1147, 1549, 1550, 1589, 1588
1148, 1550, 1551, 1590, 1589
1149, 1551, 1552, 1591, 1590
1150, 1552, 1553, 1592, 1591
1151, 1553, 1554, 1593, 1592
1152, 1554, 1555, 1594, 1593
1153, 1555, 1556, 1595, 1594
1154, 1556, 1557, 1596, 1595
1155, 1557, 1558, 1597, 1596
1156, 1558, 1559, 1598, 1597
1157, 1559, 1560, 1599, 1598
1158, 1560, 1561, 1600, 1599
1159, 1561, 1562, 1601, 1600
1160, 1562,   75,   76, 1601
1161,  216, 1563, 1602,  215
1162, 1563, 1564, 1603, 1602
1163, 1564, 1565, 1604, 1603
1164, 1565, 1566, 1605, 1604
1165, 1566, 1567, 1606, 1605
1166, 1567, 1568, 1607, 1606
1167, 1568, 1569, 1608, 1607
1168, 1569, 1570, 1609, 1608
1169, 1570, 1571, 1610, 1609
1170, 1571, 1572, 1611, 1610
1171, 1572, 1573, 1612, 1611
1172, 1573, 1574, 1613, 1612
1173, 1574, 1575, 1614, 1613
1174, 1575, 1576, 1615, 1614
1175, 1576, 1577, 1616, 1615
1176, 1577, 1578, 1617, 1616
1177, 1578, 1579, 1618, 1617
1178, 1579, 1580, 1619, 1618
1179, 1580, 1581, 1620, 1619
1180, 1581, 1582, 1621, 1620
1181, 1582, 1583, 1622, 1621
1182, 1583, 1584, 1623, 1622
1183, 1584, 1585, 1624, 1623
1184, 1585, 1586, 1625, 1624
1185, 1586, 1587, 1626, 1625
1186, 1587, 1588, 1627, 1626
1187, 1588, 1589, 1628, 1627
1188, 1589, 1590, 1629, 1628
1189, 1590, 1591, 1630, 1629
1190, 1591, 1592, 1631, 1630
1191, 1592, 1593, 1632, 1631
1192, 1593, 1594, 1633, 1632
1193, 1594, 1595, 1634, 1633
1194, 1595, 1596, 1635, 1634
1195, 1596, 1597, 1636, 1635
1196, 1597, 1598, 1637, 1636
1197, 1598, 1599, 1638, 1637
1198, 1599, 1600, 1639, 1638
1199, 1600, 1601, 1640, 1639
1200, 1601,   76,   77, 1640
1201,  215, 1602, 1641,  214
1202, 1602, 1603, 1642, 1641
1203, 1603, 1604, 1643, 1642
1204, 1604, 1605, 1644, 1643
1205, 1605, 1606, 1645, 1644
1206, 1606, 1607, 1646, 1645
1207, 1607, 1608, 1647, 1646
1208, 1608, 1609, 1648, 1647
1209, 1609, 1610, 1649, 1648
1210, 1610, 1611, 1650, 1649
1211, 1611, 1612, 1651, 1650
1212, 1612, 1613, 1652, 1651
1213, 1613, 1614, 1653, 1652
1214, 1614, 1615, 1654, 1653
1215, 1615, 1616, 1655, 1654
1216, 1616, 1617, 1656, 1655
1217, 1617, 1618, 1657, 1656
1218, 1618, 1619, 1658, 1657
1219, 1619, 1620, 1659, 1658
1220, 1620, 1621, 1660, 1659
1221, 1621, 1622, 1661, 1660
1222, 1622, 1623, 1662, 1661
1223, 1623, 1624, 1663, 1662
1224, 1624, 1625, 1664, 1663
1225, 1625, 1626, 1665, 1664
1226, 1626, 1627, 1666, 1665
1227, 1627, 1628, 1667, 1666
1228, 1628, 1629, 1668, 1667
1229, 1629, 1630, 1669, 1668
1230, 1630, 1631, 1670, 1669
1231, 1631, 1632, 1671, 1670
1232, 1632, 1633, 1672, 1671
1233, 1633, 1634, 1673, 1672
1234, 1634, 1635, 1674, 1673
1235, 1635, 1636, 1675, 1674
1236, 1636, 1637, 1676, 1675
1237, 1637, 1638, 1677, 1676
1238, 1638, 1639, 1678, 1677
1239, 1639, 1640, 1679, 1678
1240, 1640,   77,   78, 1679
1241,  214, 1641, 1680,  213
1242, 1641, 1642, 1681, 1680
1243, 1642, 1643, 1682, 1681
1244, 1643, 1644, 1683, 1682
1245, 1644, 1645, 1684, 1683
1246, 1645, 1646, 1685, 1684
1247, 1646, 1647, 1686, 1685
1248, 1647, 1648, 1687, 1686
1249, 1648, 1649, 1688, 1687
1250, 1649, 1650, 1689, 1688
1251, 1650, 1651, 1690, 1689
1252, 1651, 1652, 1691, 1690
1253, 1652, 1653, 1692, 1691
1254, 1653, 1654, 1693, 1692
1255, 1654, 1655, 1694, 1693
1256, 1655, 1656, 1695, 1694
1257, 1656, 1657, 1696, 1695
1258, 1657, 1658, 1697, 1696
1259, 1658, 1659, 1698, 1697
1260, 1659, 1660, 1699, 1698
1261, 1660, 1661, 1700, 1699
1262, 1661, 1662, 1701, 1700
1263, 1662, 1663, 1702, 1701
1264, 1663, 1664, 1703, 1702
1265, 1664, 1665, 1704, 1703
1266, 1665, 1666, 1705, 1704
1267, 1666, 1667, 1706, 1705
1268, 1667, 1668, 1707, 1706
1269, 1668, 1669, 1708, 1707
1270, 1669, 1670, 1709, 1708
1271, 1670, 1671, 1710, 1709
1272, 1671, 1672, 1711, 1710
1273, 1672, 1673, 1712, 1711
1274, 1673, 1674, 1713, 1712
1275, 1674, 1675, 1714, 1713
1276, 1675, 1676, 1715, 1714
1277, 1676, 1677, 1716, 1715
1278, 1677, 1678, 1717, 1716
1279, 1678, 1679, 1718, 1717
1280, 1679,   78,   79, 1718
1281,  213, 1680, 1719,  212
1282, 1680, 1681, 1720, 1719
1283, 1681, 1682, 1721, 1720
1284, 1682, 1683, 1722, 1721
1285, 1683, 1684, 1723, 1722
1286, 1684, 1685, 1724, 1723
1287, 1685, 1686, 1725, 1724
1288, 1686, 1687, 1726, 1725
1289, 1687, 1688, 1727, 1726
1290, 1688, 1689, 1728, 1727
1291, 1689, 1690, 1729, 1728
1292, 1690, 1691, 1730, 1729
1293, 1691, 1692, 1731, 1730
1294, 1692, 1693, 1732, 1731
1295, 1693, 1694, 1733, 1732
1296, 1694, 1695, 1734, 1733
1297, 1695, 1696, 1735, 1734
1298, 1696, 1697, 1736, 1735
1299, 1697, 1698, 1737, 1736
1300, 1698, 1699, 1738, 1737
1301, 1699, 1700, 1739, 1738
1302, 1700, 1701, 1740, 1739
1303, 1701, 1702, 1741, 1740
1304, 1702, 1703, 1742, 1741
1305, 1703, 1704, 1743, 1742
1306, 1704, 1705, 1744, 1743
1307, 1705, 1706, 1745, 1744
1308, 1706, 1707, 1746, 1745
1309, 1707, 1708, 1747, 1746
1310, 1708, 1709, 1748, 1747
1311, 1709, 1710, 1749, 1748
1312, 1710, 1711, 1750, 1749
1313, 1711, 1712, 1751, 1750
1314, 1712, 1713, 1752, 1751
1315, 1713, 1714, 1753, 1752
1316, 1714, 1715, 1754, 1753
1317, 1715, 1716, 1755, 1754
1318, 1716, 1717, 1756, 1755
1319, 1717, 1718, 1757, 1756
1320, 1718,   79,   80, 1757
1321,  212, 1719, 1758,  211
1322, 1719, 1720, 1759, 1758
1323, 1720, 1721, 1760, 1759
1324, 1721, 1722, 1761, 1760
1325, 1722, 1723, 1762, 1761
1326, 1723, 1724, 1763, 1762
1327, 1724, 1725, 1764, 1763
1328, 1725, 1726, 1765, 1764
1329, 1726, 1727, 1766, 1765
1330, 1727, 1728, 1767, 1766
1331, 1728, 1729, 1768, 1767
1332, 1729, 1730, 1769, 1768
1333, 1730, 1731, 1770, 1769
1334, 1731, 1732, 1771, 1770
1335, 1732, 1733, 1772, 1771
1336, 1733, 1734, 1773, 1772
1337, 1734, 1735, 1774, 1773
1338, 1735, 1736, 1775, 1774
1339, 1736, 1737, 1776, 1775
1340, 1737, 1738, 1777, 1776
1341, 1738, 1739, 1778, 1777
1342, 1739, 1740, 1779, 1778
1343, 1740, 1741, 1780, 1779
1344, 1741, 1742, 1781, 1780
1345, 1742, 1743, 1782, 1781
1346, 1743, 1744, 1783, 1782
1347, 1744, 1745, 1784, 1783
1348, 1745, 1746, 1785, 1784
1349, 1746, 1747, 1786, 1785
1350, 1747, 1748, 1787, 1786
1351, 1748, 1749, 1788, 1787
1352, 1749, 1750, 1789, 1788
1353, 1750, 1751, 1790, 1789
1354, 1751, 1752, 1791, 1790
1355, 1752, 1753, 1792, 1791
1356, 1753, 1754, 1793, 1792
1357, 1754, 1755, 1794, 1793
1358, 1755, 1756, 1795, 1794
1359, 1756, 1757, 1796, 1795
1360, 1757,   80,   81, 1796
1361,  211, 1758, 1797,  210
1362, 1758, 1759, 1798, 1797
1363, 1759, 1760, 1799, 1798
1364, 1760, 1761, 1800, 1799
1365, 1761, 1762, 1801, 1800
1366, 1762, 1763, 1802, 1801
1367, 1763, 1764, 1803, 1802
1368, 1764, 1765, 1804, 1803
1369, 1765, 1766, 1805, 1804
1370, 1766, 1767, 1806, 1805
1371, 1767, 1768, 1807, 1806
1372, 1768, 1769, 1808, 1807
1373, 1769, 1770, 1809, 1808
1374, 1770, 1771, 1810, 1809
1375, 1771, 1772, 1811, 1810
1376, 1772, 1773, 1812, 1811
1377, 1773, 1774, 1813, 1812
1378, 1774, 1775, 1814, 1813
1379, 1775, 1776, 1815, 1814
1380, 1776, 1777, 1816, 1815
1381, 1777, 1778, 1817, 1816
1382, 1778, 1779, 1818, 1817
1383, 1779, 1780, 1819, 1818
1384, 1780, 1781, 1820, 1819
1385, 1781, 1782, 1821, 1820
1386, 1782, 1783, 1822, 1821
1387, 1783, 1784, 1823, 1822
1388, 1784, 1785, 1824, 1823
1389, 1785, 1786, 1825, 1824
1390, 1786, 1787, 1826, 1825
1391, 1787, 1788, 1827, 1826
1392, 1788, 1789, 1828, 1827
1393, 1789, 1790, 1829, 1828
1394, 1790, 1791, 1830, 1829
1395, 1791, 1792, 1831, 1830
1396, 1792, 1793, 1832, 1831
1397, 1793, 1794, 1833, 1832
1398, 1794, 1795, 1834, 1833
1399, 1795, 1796, 1835, 1834
1400, 1796,   81,   82, 1835
1401,  210, 1797, 1836,  209
1402, 1797, 1798, 1837, 1836
1403, 1798, 1799, 1838, 1837
1404, 1799, 1800, 1839, 1838
1405, 1800, 1801, 1840, 1839
1406, 1801, 1802, 1841, 1840
1407, 1802, 1803, 1842, 1841
1408, 1803, 1804, 1843, 1842
1409, 1804, 1805, 1844, 1843
1410, 1805, 1806, 1845, 1844
1411, 1806, 1807, 1846, 1845
1412, 1807, 1808, 1847, 1846
1413, 1808, 1809, 1848, 1847
1414, 1809, 1810, 1849, 1848
1415, 1810, 1811, 1850, 1849
1416, 1811, 1812, 1851, 1850
1417, 1812, 1813, 1852, 1851
1418, 1813, 1814, 1853, 1852
1419, 1814, 1815, 1854, 1853
1420, 1815, 1816, 1855, 1854
1421, 1816, 1817, 1856, 1855
1422, 1817, 1818, 1857, 1856
1423, 1818, 1819, 1858, 1857
1424, 1819, 1820, 1859, 1858
1425, 1820, 1821, 1860, 1859
1426, 1821, 1822, 1861, 1860
1427, 1822, 1823, 1862, 1861
1428, 1823, 1824, 1863, 1862
1429, 1824, 1825, 1864, 1863
1430, 1825, 1826, 1865, 1864
1431, 1826, 1827, 1866, 1865
1432, 1827, 1828, 1867, 1866
1433, 1828, 1829, 1868, 1867
1434, 1829, 1830, 1869, 1868
1435, 1830, 1831, 1870, 1869
1436, 1831, 1832, 1871, 1870
1437, 1832, 1833, 1872, 1871
1438, 1833, 1834, 1873, 1872
1439, 1834, 1835, 1874, 1873
1440, 1835,   82,   83, 1874
1441,  209, 1836, 1875,  208
1442, 1836, 1837, 1876, 1875
1443, 1837, 1838, 1877, 1876
1444, 1838, 1839, 1878, 1877
1445, 1839, 1840, 1879, 1878
1446, 1840, 1841, 1880, 1879
1447, 1841, 1842, 1881, 1880
1448, 1842, 1843, 1882, 1881
1449, 1843, 1844, 1883, 1882
1450, 1844, 1845, 1884, 1883
1451, 1845, 1846, 1885, 1884
1452, 1846, 1847, 1886, 1885
1453, 1847, 1848, 1887, 1886
1454, 1848, 1849, 1888, 1887
1455, 1849, 1850, 1889, 1888
1456, 1850, 1851, 1890, 1889
1457, 1851, 1852, 1891, 1890
1458, 1852, 1853, 1892, 1891
1459, 1853, 1854, 1893, 1892
1460, 1854, 1855, 1894, 1893
1461, 1855, 1856, 1895, 1894
1462, 1856, 1857, 1896, 1895
1463, 1857, 1858, 1897, 1896
1464, 1858, 1859, 1898, 1897
1465, 1859, 1860, 1899, 1898
1466, 1860, 1861, 1900, 1899
1467, 1861, 1862, 1901, 1900
1468, 1862, 1863, 1902, 1901
1469, 1863, 1864, 1903, 1902
1470, 1864, 1865, 1904, 1903
1471, 1865, 1866, 1905, 1904
1472, 1866, 1867, 1906, 1905
1473, 1867, 1868, 1907, 1906
1474, 1868, 1869, 1908, 1907
1475, 1869, 1870, 1909, 1908
1476, 1870, 1871, 1910, 1909
1477, 1871, 1872, 1911, 1910
1478, 1872, 1873, 1912, 1911
1479, 1873, 1874, 1913, 1912
1480, 1874,   83,   84, 1913
1481,  208, 1875, 1914,  207
1482, 1875, 1876, 1915, 1914
1483, 1876, 1877, 1916, 1915
1484, 1877, 1878, 1917, 1916
1485, 1878, 1879, 1918, 1917
1486, 1879, 1880, 1919, 1918
1487, 1880, 1881, 1920, 1919
1488, 1881, 1882, 1921, 1920
1489, 1882, 1883, 1922, 1921
1490, 1883, 1884, 1923, 1922
1491, 1884, 1885, 1924, 1923
1492, 1885, 1886, 1925, 1924
1493, 1886, 1887, 1926, 1925
1494, 1887, 1888, 1927, 1926
1495, 1888, 1889, 1928, 1927
1496, 1889, 1890, 1929, 1928
1497, 1890, 1891, 1930, 1929
1498, 1891, 1892, 1931, 1930
1499, 1892, 1893, 1932, 1931
1500, 1893, 1894, 1933, 1932
1501, 1894, 1895, 1934, 1933
1502, 1895, 1896, 1935, 1934
1503, 1896, 1897, 1936, 1935
1504, 1897, 1898, 1937, 1936
1505, 1898, 1899, 1938, 1937
1506, 1899, 1900, 1939, 1938
1507, 1900, 1901, 1940, 1939
1508, 1901, 1902, 1941, 1940
1509, 1902, 1903, 1942, 1941
1510, 1903, 1904, 1943, 1942
1511, 1904, 1905, 1944, 1943
1512, 1905, 1906, 1945, 1944
1513, 1906, 1907, 1946, 1945
1514, 1907, 1908, 1947, 1946
1515, 1908, 1909, 1948, 1947
1516, 1909, 1910, 1949, 1948
1517, 1910, 1911, 1950, 1949
1518, 1911, 1912, 1951, 1950
1519, 1912, 1913, 1952, 1951
1520, 1913,   84,   85, 1952
1521,  207, 1914, 1953,  206
1522, 1914, 1915, 1954, 1953
1523, 1915, 1916, 1955, 1954
1524, 1916, 1917, 1956, 1955
1525, 1917, 1918, 1957, 1956
1526, 1918, 1919, 1958, 1957
1527, 1919, 1920, 1959, 1958
1528, 1920, 1921, 1960, 1959
1529, 1921, 1922, 1961, 1960
1530, 1922, 1923, 1962, 1961
1531, 1923, 1924, 1963, 1962
1532, 1924, 1925, 1964, 1963
1533, 1925, 1926, 1965, 1964
1534, 1926, 1927, 1966, 1965
1535, 1927, 1928, 1967, 1966
1536, 1928, 1929, 1968, 1967
1537, 1929, 1930, 1969, 1968
1538, 1930, 1931, 1970, 1969
1539, 1931, 1932, 1971, 1970
1540, 1932, 1933, 1972, 1971
1541, 1933, 1934, 1973, 1972
1542, 1934, 1935, 1974, 1973
1543, 1935, 1936, 1975, 1974
1544, 1936, 1937, 1976, 1975
1545, 1937, 1938, 1977, 1976
1546, 1938, 1939, 1978, 1977
1547, 1939, 1940, 1979, 1978
1548, 1940, 1941, 1980, 1979
1549, 1941, 1942, 1981, 1980
1550, 1942, 1943, 1982, 1981
1551, 1943, 1944, 1983, 1982
1552, 1944, 1945, 1984, 1983
1553, 1945, 1946, 1985, 1984
1554, 1946, 1947, 1986, 1985
1555, 1947, 1948, 1987, 1986
1556, 1948, 1949, 1988, 1987
1557, 1949, 1950, 1989, 1988
1558, 1950, 1951, 1990, 1989
1559, 1951, 1952, 1991, 1990
1560, 1952,   85,   86, 1991
1561,  206, 1953, 1992,  205
1562, 1953, 1954, 1993, 1992
1563, 1954, 1955, 1994, 1993
1564, 1955, 1956, 1995, 1994
1565, 1956, 1957, 1996, 1995
1566, 1957, 1958, 1997, 1996
1567, 1958, 1959, 1998, 1997
1568, 1959, 1960, 1999, 1998
1569, 1960, 1961, 2000, 1999
1570, 1961, 1962, 2001, 2000
1571, 1962, 1963, 2002, 2001
1572, 1963, 1964, 2003, 2002
1573, 1964, 1965, 2004, 2003
1574, 1965, 1966, 2005, 2004
1575, 1966, 1967, 2006, 2005
1576, 1967, 1968, 2007, 2006
1577, 1968, 1969, 2008, 2007
1578, 1969, 1970, 2009, 2008
1579, 1970, 1971, 2010, 2009
1580, 1971, 1972, 2011, 2010
1581, 1972, 1973, 2012, 2011
1582, 1973, 1974, 2013, 2012
1583, 1974, 1975, 2014, 2013
1584, 1975, 1976, 2015, 2014
1585, 1976, 1977, 2016, 2015
1586, 1977, 1978, 2017, 2016
1587, 1978, 1979, 2018, 2017
1588, 1979, 1980, 2019, 2018
1589, 1980, 1981, 2020, 2019
1590, 1981, 1982, 2021, 2020
1591, 1982, 1983, 2022, 2021
1592, 1983, 1984, 2023, 2022
1593, 1984, 1985, 2024, 2023
1594, 1985, 1986, 2025, 2024
1595, 1986, 1987, 2026, 2025
1596, 1987, 1988, 2027, 2026
1597, 1988, 1989, 2028, 2027
1598, 1989, 1990, 2029, 2028
1599, 1990, 1991, 2030, 2029
1600, 1991,   86,   87, 2030
1601,  205, 1992, 2031,  204
1602, 1992, 1993, 2032, 2031
1603, 1993, 1994, 2033, 2032
1604, 1994, 1995, 2034, 2033
1605, 1995, 1996, 2035, 2034
1606, 1996, 1997, 2036, 2035
1607, 1997, 1998, 2037, 2036
1608, 1998, 1999, 2038, 2037
1609, 1999, 2000, 2039, 2038
1610, 2000, 2001, 2040, 2039
1611, 2001, 2002, 2041, 2040
1612, 2002, 2003, 2042, 2041
1613, 2003, 2004, 2043, 2042
1614, 2004, 2005, 2044, 2043
1615, 2005, 2006, 2045, 2044
1616, 2006, 2007, 2046, 2045
1617, 2007, 2008, 2047, 2046
1618, 2008, 2009, 2048, 2047
1619, 2009, 2010, 2049, 2048
1620, 2010, 2011, 2050, 2049
1621, 2011, 2012, 2051, 2050
1622, 2012, 2013, 2052, 2051
1623, 2013, 2014, 2053, 2052
1624, 2014, 2015, 2054, 2053
1625, 2015, 2016, 2055, 2054
1626, 2016, 2017, 2056, 2055
1627, 2017, 2018, 2057, 2056
1628, 2018, 2019, 2058, 2057
1629, 2019, 2020, 2059, 2058
1630, 2020, 2021, 2060, 2059
1631, 2021, 2022, 2061, 2060
1632, 2022, 2023, 2062, 2061
1633, 2023, 2024, 2063, 2062
1634, 2024, 2025, 2064, 2063
1635, 2025, 2026, 2065, 2064
1636, 2026, 2027, 2066, 2065
1637, 2027, 2028, 2067, 2066
1638, 2028, 2029, 2068, 2067
1639, 2029, 2030, 2069, 2068
1640, 2030,   87,   88, 2069
1641,  204, 2031, 2070,  203
1642, 2031, 2032, 2071, 2070
1643, 2032, 2033, 2072, 2071
1644, 2033, 2034, 2073, 2072
1645, 2034, 2035, 2074, 2073
1646, 2035, 2036, 2075, 2074
1647, 2036, 2037, 2076, 2075
1648, 2037, 2038, 2077, 2076
1649, 2038, 2039, 2078, 2077
1650, 2039, 2040, 2079, 2078
1651, 2040, 2041, 2080, 2079
1652, 2041, 2042, 2081, 2080
1653, 2042, 2043, 2082, 2081
1654, 2043, 2044, 2083, 2082
1655, 2044, 2045, 2084, 2083
1656, 2045, 2046, 2085, 2084
1657, 2046, 2047, 2086, 2085
1658, 2047, 2048, 2087, 2086
1659, 2048, 2049, 2088, 2087
1660, 2049, 2050, 2089, 2088
1661, 2050, 2051, 2090, 2089
1662, 2051, 2052, 2091, 2090
1663, 2052, 2053, 2092, 2091
1664, 2053, 2054, 2093, 2092
1665, 2054, 2055, 2094, 2093
1666, 2055, 2056, 2095, 2094
1667, 2056, 2057, 2096, 2095
1668, 2057, 2058, 2097, 2096
1669, 2058, 2059, 2098, 2097
1670, 2059, 2060, 2099, 2098
1671, 2060, 2061, 2100, 2099
1672, 2061, 2062, 2101, 2100
1673, 2062, 2063, 2102, 2101
1674, 2063, 2064, 2103, 2102
1675, 2064, 2065, 2104, 2103
1676, 2065, 2066, 2105, 2104
1677, 2066, 2067, 2106, 2105
1678, 2067, 2068, 2107, 2106
1679, 2068, 2069, 2108, 2107
1680, 2069,   88,   89, 2108
1681,  203, 2070, 2109,  202
1682, 2070, 2071, 2110, 2109
1683, 2071, 2072, 2111, 2110
1684, 2072, 2073, 2112, 2111
1685, 2073, 2074, 2113, 2112
1686, 2074, 2075, 2114, 2113
1687, 2075, 2076, 2115, 2114
1688, 2076, 2077, 2116, 2115
1689, 2077, 2078, 2117, 2116
1690, 2078, 2079, 2118, 2117
1691, 2079, 2080, 2119, 2118
1692, 2080, 2081, 2120, 2119
1693, 2081, 2082, 2121, 2120
1694, 2082, 2083, 2122, 2121
1695, 2083, 2084, 2123, 2122
1696, 2084, 2085, 2124, 2123
1697, 2085, 2086, 2125, 2124
1698, 2086, 2087, 2126, 2125
1699, 2087, 2088, 2127, 2126
1700, 2088, 2089, 2128, 2127
1701, 2089, 2090, 2129, 2128
1702, 2090, 2091, 2130, 2129
1703, 2091, 2092, 2131, 2130
1704, 2092, 2093, 2132, 2131
1705, 2093, 2094, 2133, 2132
1706, 2094, 2095, 2134, 2133
1707, 2095, 2096, 2135, 2134
1708, 2096, 2097, 2136, 2135
1709, 2097, 2098, 2137, 2136
1710, 2098, 2099, 2138, 2137
1711, 2099, 2100, 2139, 2138
1712, 2100, 2101, 2140, 2139
1713, 2101, 2102, 2141, 2140
1714, 2102, 2103, 2142, 2141
1715, 2103, 2104, 2143, 2142
1716, 2104, 2105, 2144, 2143
1717, 2105, 2106, 2145, 2144
1718, 2106, 2107, 2146, 2145
1719, 2107, 2108, 2147, 2146
1720, 2108,   89,   90, 2147
1721,  202, 2109, 2148,  201
1722, 2109, 2110, 2149, 2148
1723, 2110, 2111, 2150, 2149
1724, 2111, 2112, 2151, 2150
1725, 2112, 2113, 2152, 2151
1726, 2113, 2114, 2153, 2152
1727, 2114, 2115, 2154, 2153
1728, 2115, 2116, 2155, 2154
1729, 2116, 2117, 2156, 2155
1730, 2117, 2118, 2157, 2156
1731, 2118, 2119, 2158, 2157
1732, 2119, 2120, 2159, 2158
1733, 2120, 2121, 2160, 2159
1734, 2121, 2122, 2161, 2160
1735, 2122, 2123, 2162, 2161
1736, 2123, 2124, 2163, 2162
1737, 2124, 2125, 2164, 2163
1738, 2125, 2126, 2165, 2164
1739, 2126, 2127, 2166, 2165
1740, 2127, 2128, 2167, 2166
1741, 2128, 2129, 2168, 2167
1742, 2129, 2130, 2169, 2168
1743, 2130, 2131, 2170, 2169
1744, 2131, 2132, 2171, 2170
1745, 2132, 2133, 2172, 2171
1746, 2133, 2134, 2173, 2172
1747, 2134, 2135, 2174, 2173
1748, 2135, 2136, 2175, 2174
1749, 2136, 2137, 2176, 2175
1750, 2137, 2138, 2177, 2176
1751, 2138, 2139, 2178, 2177
1752, 2139, 2140, 2179, 2178
1753, 2140, 2141, 2180, 2179
1754, 2141, 2142, 2181, 2180
1755, 2142, 2143, 2182, 2181
1756, 2143, 2144, 2183, 2182
1757, 2144, 2145, 2184, 2183
1758, 2145, 2146, 2185, 2184
1759, 2146, 2147, 2186, 2185
1760, 2147,   90,   91, 2186
1761,  201, 2148, 2187,  200
1762, 2148, 2149, 2188, 2187
1763, 2149, 2150, 2189, 2188
1764, 2150, 2151, 2190, 2189
1765, 2151, 2152, 2191, 2190
1766, 2152, 2153, 2192, 2191
1767, 2153, 2154, 2193, 2192
1768, 2154, 2155, 2194, 2193
1769, 2155, 2156, 2195, 2194
1770, 2156, 2157, 2196, 2195
1771, 2157, 2158, 2197, 2196
1772, 2158, 2159, 2198, 2197
1773, 2159, 2160, 2199, 2198
1774, 2160, 2161, 2200, 2199
1775, 2161, 2162, 2201, 2200
1776, 2162, 2163, 2202, 2201
1777, 2163, 2164, 2203, 2202
1778, 2164, 2165, 2204, 2203
1779, 2165, 2166, 2205, 2204
1780, 2166, 2167, 2206, 2205
1781, 2167, 2168, 2207, 2206
1782, 2168, 2169, 2208, 2207
1783, 2169, 2170, 2209, 2208
1784, 2170, 2171, 2210, 2209
1785, 2171, 2172, 2211, 2210
1786, 2172, 2173, 2212, 2211
1787, 2173, 2174, 2213, 2212
1788, 2174, 2175, 2214, 2213
1789, 2175, 2176, 2215, 2214
1790, 2176, 2177, 2216, 2215
1791, 2177, 2178, 2217, 2216
1792, 2178, 2179, 2218, 2217
1793, 2179, 2180, 2219, 2218
1794, 2180, 2181, 2220, 2219
1795, 2181, 2182, 2221, 2220
1796, 2182, 2183, 2222, 2221
1797, 2183, 2184, 2223, 2222
1798, 2184, 2185, 2224, 2223
1799, 2185, 2186, 2225, 2224
1800, 2186,   91,   92, 2225
1801,  200, 2187, 2226,  199
1802, 2187, 2188, 2227, 2226
1803, 2188, 2189, 2228, 2227
1804, 2189, 2190, 2229, 2228
1805, 2190, 2191, 2230, 2229
1806, 2191, 2192, 2231, 2230
1807, 2192, 2193, 2232, 2231
1808, 2193, 2194, 2233, 2232
1809, 2194, 2195, 2234, 2233
1810, 2195, 2196, 2235, 2234
1811, 2196, 2197, 2236, 2235
1812, 2197, 2198, 2237, 2236
1813, 2198, 2199, 2238, 2237
1814, 2199, 2200, 2239, 2238
1815, 2200, 2201, 2240, 2239
1816, 2201, 2202, 2241, 2240
1817, 2202, 2203, 2242, 2241
1818, 2203, 2204, 2243, 2242
1819, 2204, 2205, 2244, 2243
1820, 2205, 2206, 2245, 2244
1821, 2206, 2207, 2246, 2245
1822, 2207, 2208, 2247, 2246
1823, 2208, 2209, 2248, 2247
1824, 2209, 2210, 2249, 2248
1825, 2210, 2211, 2250, 2249
1826, 2211, 2212, 2251, 2250
1827, 2212, 2213, 2252, 2251
1828, 2213, 2214, 2253, 2252
1829, 2214, 2215, 2254, 2253
1830, 2215, 2216, 2255, 2254
1831, 2216, 2217, 2256, 2255
1832, 2217, 2218, 2257, 2256
1833, 2218, 2219, 2258, 2257
1834, 2219, 2220, 2259, 2258
1835, 2220, 2221, 2260, 2259
1836, 2221, 2222, 2261, 2260
1837, 2222, 2223, 2262, 2261
1838, 2223, 2224, 2263, 2262
1839, 2224, 2225, 2264, 2263
1840, 2225,   92,   93, 2264
1841,  199, 2226, 2265,  198
1842, 2226, 2227, 2266, 2265
1843, 2227, 2228, 2267, 2266
1844, 2228, 2229, 2268, 2267
1845, 2229, 2230, 2269, 2268
1846, 2230, 2231, 2270, 2269
1847, 2231, 2232, 2271, 2270
1848, 2232, 2233, 2272, 2271
1849, 2233, 2234, 2273, 2272
1850, 2234, 2235, 2274, 2273
1851, 2235, 2236, 2275, 2274
1852, 2236, 2237, 2276, 2275
1853, 2237, 2238, 2277, 2276
1854, 2238, 2239, 2278, 2277
1855, 2239, 2240, 2279, 2278
1856, 2240, 2241, 2280, 2279
1857, 2241, 2242, 2281, 2280
1858, 2242, 2243, 2282, 2281
1859, 2243, 2244, 2283, 2282
1860, 2244, 2245, 2284, 2283
1861, 2245, 2246, 2285, 2284
1862, 2246, 2247, 2286, 2285
1863, 2247, 2248, 2287, 2286
1864, 2248, 2249, 2288, 2287
1865, 2249, 2250, 2289, 2288
1866, 2250, 2251, 2290, 2289
1867, 2251, 2252, 2291, 2290
1868, 2252, 2253, 2292, 2291
1869, 2253, 2254, 2293, 2292
1870, 2254, 2255, 2294, 2293
1871, 2255, 2256, 2295, 2294
1872, 2256, 2257, 2296, 2295
1873, 2257, 2258, 2297, 2296
1874, 2258, 2259, 2298, 2297
1875, 2259, 2260, 2299, 2298
1876, 2260, 2261, 2300, 2299
1877, 2261, 2262, 2301, 2300
1878, 2262, 2263, 2302, 2301
1879, 2263, 2264, 2303, 2302
1880, 2264,   93,   94, 2303
1881,  198, 2265, 2304,  197
1882, 2265, 2266, 2305, 2304
1883, 2266, 2267, 2306, 2305
1884, 2267, 2268, 2307, 2306
1885, 2268, 2269, 2308, 2307
1886, 2269, 2270, 2309, 2308
1887, 2270, 2271, 2310, 2309
1888, 2271, 2272, 2311, 2310
1889, 2272, 2273, 2312, 2311
1890, 2273, 2274, 2313, 2312
1891, 2274, 2275, 2314, 2313
1892, 2275, 2276, 2315, 2314
1893, 2276, 2277, 2316, 2315
1894, 2277, 2278, 2317, 2316
1895, 2278, 2279, 2318, 2317
1896, 2279, 2280, 2319, 2318
1897, 2280, 2281, 2320, 2319
1898, 2281, 2282, 2321, 2320
1899, 2282, 2283, 2322, 2321
1900, 2283, 2284, 2323, 2322
1901, 2284, 2285, 2324, 2323
1902, 2285, 2286, 2325, 2324
1903, 2286, 2287, 2326, 2325
1904, 2287, 2288, 2327, 2326
1905, 2288, 2289, 2328, 2327
1906, 2289, 2290, 2329, 2328
1907, 2290, 2291, 2330, 2329
1908, 2291, 2292, 2331, 2330
1909, 2292, 2293, 2332, 2331
1910, 2293, 2294, 2333, 2332
1911, 2294, 2295, 2334, 2333
1912, 2295, 2296, 2335, 2334
1913, 2296, 2297, 2336, 2335
1914, 2297, 2298, 2337, 2336
1915, 2298, 2299, 2338, 2337
1916, 2299, 2300, 2339, 2338
1917, 2300, 2301, 2340, 2339
1918, 2301, 2302, 2341, 2340
1919, 2302, 2303, 2342, 2341
1920, 2303,   94,   95, 2342
1921,  197, 2304, 2343,  196
1922, 2304, 2305, 2344, 2343
1923, 2305, 2306, 2345, 2344
1924, 2306, 2307, 2346, 2345
1925, 2307, 2308, 2347, 2346
1926, 2308, 2309, 2348, 2347
1927, 2309, 2310, 2349, 2348
1928, 2310, 2311, 2350, 2349
1929, 2311, 2312, 2351, 2350
1930, 2312, 2313, 2352, 2351
1931, 2313, 2314, 2353, 2352
1932, 2314, 2315, 2354, 2353
1933, 2315, 2316, 2355, 2354
1934, 2316, 2317, 2356, 2355
1935, 2317, 2318, 2357, 2356
1936, 2318, 2319, 2358, 2357
1937, 2319, 2320, 2359, 2358
1938, 2320, 2321, 2360, 2359
1939, 2321, 2322, 2361, 2360
1940, 2322, 2323, 2362, 2361
1941, 2323, 2324, 2363, 2362
1942, 2324, 2325, 2364, 2363
1943, 2325, 2326, 2365, 2364
1944, 2326, 2327, 2366, 2365
1945, 2327, 2328, 2367, 2366
1946, 2328, 2329, 2368, 2367
1947, 2329, 2330, 2369, 2368
1948, 2330, 2331, 2370, 2369
1949, 2331, 2332, 2371, 2370
1950, 2332, 2333, 2372, 2371
1951, 2333, 2334, 2373, 2372
1952, 2334, 2335, 2374, 2373
1953, 2335, 2336, 2375, 2374
1954, 2336, 2337, 2376, 2375
1955, 2337, 2338, 2377, 2376
1956, 2338, 2339, 2378, 2377
1957, 2339, 2340, 2379, 2378
1958, 2340, 2341, 2380, 2379
1959, 2341, 2342, 2381, 2380
1960, 2342,   95,   96, 2381
1961,  196, 2343, 2382,  195
1962, 2343, 2344, 2383, 2382
1963, 2344, 2345, 2384, 2383
1964, 2345, 2346, 2385, 2384
1965, 2346, 2347, 2386, 2385
1966, 2347, 2348, 2387, 2386
1967, 2348, 2349, 2388, 2387
1968, 2349, 2350, 2389, 2388
1969, 2350, 2351, 2390, 2389
1970, 2351, 2352, 2391, 2390
1971, 2352, 2353, 2392, 2391
1972, 2353, 2354, 2393, 2392
1973, 2354, 2355, 2394, 2393
1974, 2355, 2356, 2395, 2394
1975, 2356, 2357, 2396, 2395
1976, 2357, 2358, 2397, 2396
1977, 2358, 2359, 2398, 2397
1978, 2359, 2360, 2399, 2398
1979, 2360, 2361, 2400, 2399
1980, 2361, 2362, 2401, 2400
1981, 2362, 2363, 2402, 2401
1982, 2363, 2364, 2403, 2402
1983, 2364, 2365, 2404, 2403
1984, 2365, 2366, 2405, 2404
1985, 2366, 2367, 2406, 2405
1986, 2367, 2368, 2407, 2406
1987, 2368, 2369, 2408, 2407
1988, 2369, 2370, 2409, 2408
1989, 2370, 2371, 2410, 2409
1990, 2371, 2372, 2411, 2410
1991, 2372, 2373, 2412, 2411
1992, 2373, 2374, 2413, 2412
1993, 2374, 2375, 2414, 2413
1994, 2375, 2376, 2415, 2414
1995, 2376, 2377, 2416, 2415
1996, 2377, 2378, 2417, 2416
1997, 2378, 2379, 2418, 2417
1998, 2379, 2380, 2419, 2418
1999, 2380, 2381, 2420, 2419
2000, 2381,   96,   97, 2420
2001,  195, 2382, 2421,  194
2002, 2382, 2383, 2422, 2421
2003, 2383, 2384, 2423, 2422
2004, 2384, 2385, 2424, 2423
2005, 2385, 2386, 2425, 2424
2006, 2386, 2387, 2426, 2425
2007, 2387, 2388, 2427, 2426
2008, 2388, 2389, 2428, 2427
2009, 2389, 2390, 2429, 2428
2010, 2390, 2391, 2430, 2429
2011, 2391, 2392, 2431, 2430
2012, 2392, 2393, 2432, 2431
2013, 2393, 2394, 2433, 2432
2014, 2394, 2395, 2434, 2433
2015, 2395, 2396, 2435, 2434
2016, 2396, 2397, 2436, 2435
2017, 2397, 2398, 2437, 2436
2018, 2398, 2399, 2438, 2437
2019, 2399, 2400, 2439, 2438
2020, 2400, 2401, 2440, 2439
2021, 2401, 2402, 2441, 2440
2022, 2402, 2403, 2442, 2441
2023, 2403, 2404, 2443, 2442
2024, 2404, 2405, 2444, 2443
2025, 2405, 2406, 2445, 2444
2026, 2406, 2407, 2446, 2445
2027, 2407, 2408, 2447, 2446
2028, 2408, 2409, 2448, 2447
2029, 2409, 2410, 2449, 2448
2030, 2410, 2411, 2450, 2449
2031, 2411, 2412, 2451, 2450
2032, 2412, 2413, 2452, 2451
2033, 2413, 2414, 2453, 2452
2034, 2414, 2415, 2454, 2453
2035, 2415, 2416, 2455, 2454
2036, 2416, 2417, 2456, 2455
2037, 2417, 2418, 2457, 2456
2038, 2418, 2419, 2458, 2457
2039, 2419, 2420, 2459, 2458
2040, 2420,   97,   98, 2459
2041,  194, 2421, 2460,  193
2042, 2421, 2422, 2461, 2460
2043, 2422, 2423, 2462, 2461
2044, 2423, 2424, 2463, 2462
2045, 2424, 2425, 2464, 2463
2046, 2425, 2426, 2465, 2464
2047, 2426, 2427, 2466, 2465
2048, 2427, 2428, 2467, 2466
2049, 2428, 2429, 2468, 2467
2050, 2429, 2430, 2469, 2468
2051, 2430, 2431, 2470, 2469
2052, 2431, 2432, 2471, 2470
2053, 2432, 2433, 2472, 2471
2054, 2433, 2434, 2473, 2472
2055, 2434, 2435, 2474, 2473
2056, 2435, 2436, 2475, 2474
2057, 2436, 2437, 2476, 2475
2058, 2437, 2438, 2477, 2476
2059, 2438, 2439, 2478, 2477
2060, 2439, 2440, 2479, 2478
2061, 2440, 2441, 2480, 2479
2062, 2441, 2442, 2481, 2480
2063, 2442, 2443, 2482, 2481
2064, 2443, 2444, 2483, 2482
2065, 2444, 2445, 2484, 2483
2066, 2445, 2446, 2485, 2484
2067, 2446, 2447, 2486, 2485
2068, 2447, 2448, 2487, 2486
2069, 2448, 2449, 2488, 2487
2070, 2449, 2450, 2489, 2488
2071, 2450, 2451, 2490, 2489
2072, 2451, 2452, 2491, 2490
2073, 2452, 2453, 2492, 2491
2074, 2453, 2454, 2493, 2492
2075, 2454, 2455, 2494, 2493
2076, 2455, 2456, 2495, 2494
2077, 2456, 2457, 2496, 2495
2078, 2457, 2458, 2497, 2496
2079, 2458, 2459, 2498, 2497
2080, 2459,   98,   99, 2498
2081,  193, 2460, 2499,  192
2082, 2460, 2461, 2500, 2499
2083, 2461, 2462, 2501, 2500
2084, 2462, 2463, 2502, 2501
2085, 2463, 2464, 2503, 2502
2086, 2464, 2465, 2504, 2503
2087, 2465, 2466, 2505, 2504
2088, 2466, 2467, 2506, 2505
2089, 2467, 2468, 2507, 2506
2090, 2468, 2469, 2508, 2507
2091, 2469, 2470, 2509, 2508
2092, 2470, 2471, 2510, 2509
2093, 2471, 2472, 2511, 2510
2094, 2472, 2473, 2512, 2511
2095, 2473, 2474, 2513, 2512
2096, 2474, 2475, 2514, 2513
2097, 2475, 2476, 2515, 2514
2098, 2476, 2477, 2516, 2515
2099, 2477, 2478, 2517, 2516
2100, 2478, 2479, 2518, 2517
2101, 2479, 2480, 2519, 2518
2102, 2480, 2481, 2520, 2519
2103, 2481, 2482, 2521, 2520
2104, 2482, 2483, 2522, 2521
2105, 2483, 2484, 2523, 2522
2106, 2484, 2485, 2524, 2523
2107, 2485, 2486, 2525, 2524
2108, 2486, 2487, 2526, 2525
2109, 2487, 2488, 2527, 2526
2110, 2488, 2489, 2528, 2527
2111, 2489, 2490, 2529, 2528
2112, 2490, 2491, 2530, 2529
2113, 2491, 2492, 2531, 2530
2114, 2492, 2493, 2532, 2531
2115, 2493, 2494, 2533, 2532
2116, 2494, 2495, 2534, 2533
2117, 2495, 2496, 2535, 2534
2118, 2496, 2497, 2536, 2535
2119, 2497, 2498, 2537, 2536
2120, 2498,   99,  100, 2537
2121,  192, 2499, 2538,  191
2122, 2499, 2500, 2539, 2538
2123, 2500, 2501, 2540, 2539
2124, 2501, 2502, 2541, 2540
2125, 2502, 2503, 2542, 2541
2126, 2503, 2504, 2543, 2542
2127, 2504, 2505, 2544, 2543
2128, 2505, 2506, 2545, 2544
2129, 2506, 2507, 2546, 2545
2130, 2507, 2508, 2547, 2546
2131, 2508, 2509, 2548, 2547
2132, 2509, 2510, 2549, 2548
2133, 2510, 2511, 2550, 2549
2134, 2511, 2512, 2551, 2550
2135, 2512, 2513, 2552, 2551
2136, 2513, 2514, 2553, 2552
2137, 2514, 2515, 2554, 2553
2138, 2515, 2516, 2555, 2554
2139, 2516, 2517, 2556, 2555
2140, 2517, 2518, 2557, 2556
2141, 2518, 2519, 2558, 2557
2142, 2519, 2520, 2559, 2558
2143, 2520, 2521, 2560, 2559
2144, 2521, 2522, 2561, 2560
2145, 2522, 2523, 2562, 2561
2146, 2523, 2524, 2563, 2562
2147, 2524, 2525, 2564, 2563
2148, 2525, 2526, 2565, 2564
2149, 2526, 2527, 2566, 2565
2150, 2527, 2528, 2567, 2566
2151, 2528, 2529, 2568, 2567
2152, 2529, 2530, 2569, 2568
2153, 2530, 2531, 2570, 2569
2154, 2531, 2532, 2571, 2570
2155, 2532, 2533, 2572, 2571
2156, 2533, 2534, 2573, 2572
2157, 2534, 2535, 2574, 2573
2158, 2535, 2536, 2575, 2574
2159, 2536, 2537, 2576, 2575
2160, 2537,  100,  101, 2576
2161,  191, 2538, 2577,  190
2162, 2538, 2539, 2578, 2577
2163, 2539, 2540, 2579, 2578
2164, 2540, 2541, 2580, 2579
2165, 2541, 2542, 2581, 2580
2166, 2542, 2543, 2582, 2581
2167, 2543, 2544, 2583, 2582
2168, 2544, 2545, 2584, 2583
2169, 2545, 2546, 2585, 2584
2170, 2546, 2547, 2586, 2585
2171, 2547, 2548, 2587, 2586
2172, 2548, 2549, 2588, 2587
2173, 2549, 2550, 2589, 2588
2174, 2550, 2551, 2590, 2589
2175, 2551, 2552, 2591, 2590
2176, 2552, 2553, 2592, 2591
2177, 2553, 2554, 2593, 2592
2178, 2554, 2555, 2594, 2593
2179, 2555, 2556, 2595, 2594
2180, 2556, 2557, 2596, 2595
2181, 2557, 2558, 2597, 2596
2182, 2558, 2559, 2598, 2597
2183, 2559, 2560, 2599, 2598
2184, 2560, 2561, 2600, 2599
2185, 2561, 2562, 2601, 2600
2186, 2562, 2563, 2602, 2601
2187, 2563, 2564, 2603, 2602
2188, 2564, 2565, 2604, 2603
2189, 2565, 2566, 2605, 2604
2190, 2566, 2567, 2606, 2605
2191, 2567, 2568, 2607, 2606
2192, 2568, 2569, 2608, 2607
2193, 2569, 2570, 2609, 2608
2194, 2570, 2571, 2610, 2609
2195, 2571, 2572, 2611, 2610
2196, 2572, 2573, 2612, 2611
2197, 2573, 2574, 2613, 2612
2198, 2574, 2575, 2614, 2613
2199, 2575, 2576, 2615, 2614
2200, 2576,  101,  102, 2615
2201,  190, 2577, 2616,  189
2202, 2577, 2578, 2617, 2616
2203, 2578, 2579, 2618, 2617
2204, 2579, 2580, 2619, 2618
2205, 2580, 2581, 2620, 2619
2206, 2581, 2582, 2621, 2620
2207, 2582, 2583, 2622, 2621
2208, 2583, 2584, 2623, 2622
2209, 2584, 2585, 2624, 2623
2210, 2585, 2586, 2625, 2624
2211, 2586, 2587, 2626, 2625
2212, 2587, 2588, 2627, 2626
2213, 2588, 2589, 2628, 2627
2214, 2589, 2590, 2629, 2628
2215, 2590, 2591, 2630, 2629
2216, 2591, 2592, 2631, 2630
2217, 2592, 2593, 2632, 2631
2218, 2593, 2594, 2633, 2632
2219, 2594, 2595, 2634, 2633
2220, 2595, 2596, 2635, 2634
2221, 2596, 2597, 2636, 2635
2222, 2597, 2598, 2637, 2636
2223, 2598, 2599, 2638, 2637
2224, 2599, 2600, 2639, 2638
2225, 2600, 2601, 2640, 2639
2226, 2601, 2602, 2641, 2640
2227, 2602, 2603, 2642, 2641
2228, 2603, 2604, 2643, 2642
2229, 2604, 2605, 2644, 2643
2230, 2605, 2606, 2645, 2644
2231, 2606, 2607, 2646, 2645
2232, 2607, 2608, 2647, 2646
2233, 2608, 2609, 2648, 2647
2234, 2609, 2610, 2649, 2648
2235, 2610, 2611, 2650, 2649
2236, 2611, 2612, 2651, 2650
2237, 2612, 2613, 2652, 2651
2238, 2613, 2614, 2653, 2652
2239, 2614, 2615, 2654, 2653
2240, 2615,  102,  103, 2654
2241,  189, 2616, 2655,  188
2242, 2616, 2617, 2656, 2655
2243, 2617, 2618, 2657, 2656
2244, 2618, 2619, 2658, 2657
2245, 2619, 2620, 2659, 2658
2246, 2620, 2621, 2660, 2659
2247, 2621, 2622, 2661, 2660
2248, 2622, 2623, 2662, 2661
2249, 2623, 2624, 2663, 2662
2250, 2624, 2625, 2664, 2663
2251, 2625, 2626, 2665, 2664
2252, 2626, 2627, 2666, 2665
2253, 2627, 2628, 2667, 2666
2254, 2628, 2629, 2668, 2667
2255, 2629, 2630, 2669, 2668
2256, 2630, 2631, 2670, 2669
2257, 2631, 2632, 2671, 2670
2258, 2632, 2633, 2672, 2671
2259, 2633, 2634, 2673, 2672
2260, 2634, 2635, 2674, 2673
2261, 2635, 2636, 2675, 2674
2262, 2636, 2637, 2676, 2675
2263, 2637, 2638, 2677, 2676
2264, 2638, 2639, 2678, 2677
2265, 2639, 2640, 2679, 2678
2266, 2640, 2641, 2680, 2679
2267, 2641, 2642, 2681, 2680
2268, 2642, 2643, 2682, 2681
2269, 2643, 2644, 2683, 2682
2270, 2644, 2645, 2684, 2683
2271, 2645, 2646, 2685, 2684
2272, 2646, 2647, 2686, 2685
2273, 2647, 2648, 2687, 2686
2274, 2648, 2649, 2688, 2687
2275, 2649, 2650, 2689, 2688
2276, 2650, 2651, 2690, 2689
2277, 2651, 2652, 2691, 2690
2278, 2652, 2653, 2692, 2691
2279, 2653, 2654, 2693, 2692
2280, 2654,  103,  104, 2693
2281,  188, 2655, 2694,  187
2282, 2655, 2656, 2695, 2694
2283, 2656, 2657, 2696, 2695
2284, 2657, 2658, 2697, 2696
2285, 2658, 2659, 2698, 2697
2286, 2659, 2660, 2699, 2698
2287, 2660, 2661, 2700, 2699
2288, 2661, 2662, 2701, 2700
2289, 2662, 2663, 2702, 2701
2290, 2663, 2664, 2703, 2702
2291, 2664, 2665, 2704, 2703
2292, 2665, 2666, 2705, 2704
2293, 2666, 2667, 2706, 2705
2294, 2667, 2668, 2707, 2706
2295, 2668, 2669, 2708, 2707
2296, 2669, 2670, 2709, 2708
2297, 2670, 2671, 2710, 2709
2298, 2671, 2672, 2711, 2710
2299, 2672, 2673, 2712, 2711
2300, 2673, 2674, 2713, 2712
2301, 2674, 2675, 2714, 2713
2302, 2675, 2676, 2715, 2714
2303, 2676, 2677, 2716, 2715
2304, 2677, 2678, 2717, 2716
2305, 2678, 2679, 2718, 2717
2306, 2679, 2680, 2719, 2718
2307, 2680, 2681, 2720, 2719
2308, 2681, 2682, 2721, 2720
2309, 2682, 2683, 2722, 2721
2310, 2683, 2684, 2723, 2722
2311, 2684, 2685, 2724, 2723
2312, 2685, 2686, 2725, 2724
2313, 2686, 2687, 2726, 2725
2314, 2687, 2688, 2727, 2726
2315, 2688, 2689, 2728, 2727
2316, 2689, 2690, 2729, 2728
2317, 2690, 2691, 2730, 2729
2318, 2691, 2692, 2731, 2730
2319, 2692, 2693, 2732, 2731
2320, 2693,  104,  105, 2732
2321,  187, 2694, 2733,  186
2322, 2694, 2695, 2734, 2733
2323, 2695, 2696, 2735, 2734
2324, 2696, 2697, 2736, 2735
2325, 2697, 2698, 2737, 2736
2326, 2698, 2699, 2738, 2737
2327, 2699, 2700, 2739, 2738
2328, 2700, 2701, 2740, 2739
2329, 2701, 2702, 2741, 2740
2330, 2702, 2703, 2742, 2741
2331, 2703, 2704, 2743, 2742
2332, 2704, 2705, 2744, 2743
2333, 2705, 2706, 2745, 2744
2334, 2706, 2707, 2746, 2745
2335, 2707, 2708, 2747, 2746
2336, 2708, 2709, 2748, 2747
2337, 2709, 2710, 2749, 2748
2338, 2710, 2711, 2750, 2749
2339, 2711, 2712, 2751, 2750
2340, 2712, 2713, 2752, 2751
2341, 2713, 2714, 2753, 2752
2342, 2714, 2715, 2754, 2753
2343, 2715, 2716, 2755, 2754
2344, 2716, 2717, 2756, 2755
2345, 2717, 2718, 2757, 2756
2346, 2718, 2719, 2758, 2757
2347, 2719, 2720, 2759, 2758
2348, 2720, 2721, 2760, 2759
2349, 2721, 2722, 2761, 2760
2350, 2722, 2723, 2762, 2761
2351, 2723, 2724, 2763, 2762
2352, 2724, 2725, 2764, 2763
2353, 2725, 2726, 2765, 2764
2354, 2726, 2727, 2766, 2765
2355, 2727, 2728, 2767, 2766
2356, 2728, 2729, 2768, 2767
2357, 2729, 2730, 2769, 2768
2358, 2730, 2731, 2770, 2769
2359, 2731, 2732, 2771, 2770
2360, 2732,  105,  106, 2771
2361,  186, 2733, 2772,  185
2362, 2733, 2734, 2773, 2772
2363, 2734, 2735, 2774, 2773
2364, 2735, 2736, 2775, 2774
2365, 2736, 2737, 2776, 2775
2366, 2737, 2738, 2777, 2776
2367, 2738, 2739, 2778, 2777
2368, 2739, 2740, 2779, 2778
2369, 2740, 2741, 2780, 2779
2370, 2741, 2742, 2781, 2780
2371, 2742, 2743, 2782, 2781
2372, 2743, 2744, 2783, 2782
2373, 2744, 2745, 2784, 2783
2374, 2745, 2746, 2785, 2784
2375, 2746, 2747, 2786, 2785
2376, 2747, 2748, 2787, 2786
2377, 2748, 2749, 2788, 2787
2378, 2749, 2750, 2789, 2788
2379, 2750, 2751, 2790, 2789
2380, 2751, 2752, 2791, 2790
2381, 2752, 2753, 2792, 2791
2382, 2753, 2754, 2793, 2792
2383, 2754, 2755, 2794, 2793
2384, 2755, 2756, 2795, 2794
2385, 2756, 2757, 2796, 2795
2386, 2757, 2758, 2797, 2796
2387, 2758, 2759, 2798, 2797
2388, 2759, 2760, 2799, 2798
2389, 2760, 2761, 2800, 2799
2390, 2761, 2762, 2801, 2800
2391, 2762, 2763, 2802, 2801
2392, 2763, 2764, 2803, 2802
2393, 2764, 2765, 2804, 2803
2394, 2765, 2766, 2805, 2804
2395, 2766, 2767, 2806, 2805
2396, 2767, 2768, 2807, 2806
2397, 2768, 2769, 2808, 2807
2398, 2769, 2770, 2809, 2808
2399, 2770, 2771, 2810, 2809
2400, 2771,  106,  107, 2810
2401,  185, 2772, 2811,  184
2402, 2772, 2773, 2812, 2811
2403, 2773, 2774, 2813, 2812
2404, 2774, 2775, 2814, 2813
2405, 2775, 2776, 2815, 2814
2406, 2776, 2777, 2816, 2815
2407, 2777, 2778, 2817, 2816
2408, 2778, 2779, 2818, 2817
2409, 2779, 2780, 2819, 2818
2410, 2780, 2781, 2820, 2819
2411, 2781, 2782, 2821, 2820
2412, 2782, 2783, 2822, 2821
2413, 2783, 2784, 2823, 2822
2414, 2784, 2785, 2824, 2823
2415, 2785, 2786, 2825, 2824
2416, 2786, 2787, 2826, 2825
2417, 2787, 2788, 2827, 2826
2418, 2788, 2789, 2828, 2827
2419, 2789, 2790, 2829, 2828
2420, 2790, 2791, 2830, 2829
2421, 2791, 2792, 2831, 2830
2422, 2792, 2793, 2832, 2831
2423, 2793, 2794, 2833, 2832
2424, 2794, 2795, 2834, 2833
2425, 2795, 2796, 2835, 2834
2426, 2796, 2797, 2836, 2835
2427, 2797, 2798, 2837, 2836
2428, 2798, 2799, 2838, 2837
2429, 2799, 2800, 2839, 2838
2430, 2800, 2801, 2840, 2839
2431, 2801, 2802, 2841, 2840
2432, 2802, 2803, 2842, 2841
2433, 2803, 2804, 2843, 2842
2434, 2804, 2805, 2844, 2843
2435, 2805, 2806, 2845, 2844
2436, 2806, 2807, 2846, 2845
2437, 2807, 2808, 2847, 2846
2438, 2808, 2809, 2848, 2847
2439, 2809, 2810, 2849, 2848
2440, 2810,  107,  108, 2849
2441,  184, 2811, 2850,  183
2442, 2811, 2812, 2851, 2850
2443, 2812, 2813, 2852, 2851
2444, 2813, 2814, 2853, 2852
2445, 2814, 2815, 2854, 2853
2446, 2815, 2816, 2855, 2854
2447, 2816, 2817, 2856, 2855
2448, 2817, 2818, 2857, 2856
2449, 2818, 2819, 2858, 2857
2450, 2819, 2820, 2859, 2858
2451, 2820, 2821, 2860, 2859
2452, 2821, 2822, 2861, 2860
2453, 2822, 2823, 2862, 2861
2454, 2823, 2824, 2863, 2862
2455, 2824, 2825, 2864, 2863
2456, 2825, 2826, 2865, 2864
2457, 2826, 2827, 2866, 2865
2458, 2827, 2828, 2867, 2866
2459, 2828, 2829, 2868, 2867
2460, 2829, 2830, 2869, 2868
2461, 2830, 2831, 2870, 2869
2462, 2831, 2832, 2871, 2870
2463, 2832, 2833, 2872, 2871
2464, 2833, 2834, 2873, 2872
2465, 2834, 2835, 2874, 2873
2466, 2835, 2836, 2875, 2874
2467, 2836, 2837, 2876, 2875
2468, 2837, 2838, 2877, 2876
2469, 2838, 2839, 2878, 2877
2470, 2839, 2840, 2879, 2878
2471, 2840, 2841, 2880, 2879
2472, 2841, 2842, 2881, 2880
2473, 2842, 2843, 2882, 2881
2474, 2843, 2844, 2883, 2882
2475, 2844, 2845, 2884, 2883
2476, 2845, 2846, 2885, 2884
2477, 2846, 2847, 2886, 2885
2478, 2847, 2848, 2887, 2886
2479, 2848, 2849, 2888, 2887
2480, 2849,  108,  109, 2888
2481,  183, 2850, 2889,  182
2482, 2850, 2851, 2890, 2889
2483, 2851, 2852, 2891, 2890
2484, 2852, 2853, 2892, 2891
2485, 2853, 2854, 2893, 2892
2486, 2854, 2855, 2894, 2893
2487, 2855, 2856, 2895, 2894
2488, 2856, 2857, 2896, 2895
2489, 2857, 2858, 2897, 2896
2490, 2858, 2859, 2898, 2897
2491, 2859, 2860, 2899, 2898
2492, 2860, 2861, 2900, 2899
2493, 2861, 2862, 2901, 2900
2494, 2862, 2863, 2902, 2901
2495, 2863, 2864, 2903, 2902
2496, 2864, 2865, 2904, 2903
2497, 2865, 2866, 2905, 2904
2498, 2866, 2867, 2906, 2905
2499, 2867, 2868, 2907, 2906
2500, 2868, 2869, 2908, 2907
2501, 2869, 2870, 2909, 2908
2502, 2870, 2871, 2910, 2909
2503, 2871, 2872, 2911, 2910
2504, 2872, 2873, 2912, 2911
2505, 2873, 2874, 2913, 2912
2506, 2874, 2875, 2914, 2913
2507, 2875, 2876, 2915, 2914
2508, 2876, 2877, 2916, 2915
2509, 2877, 2878, 2917, 2916
2510, 2878, 2879, 2918, 2917
2511, 2879, 2880, 2919, 2918
2512, 2880, 2881, 2920, 2919
2513, 2881, 2882, 2921, 2920
2514, 2882, 2883, 2922, 2921
2515, 2883, 2884, 2923, 2922
2516, 2884, 2885, 2924, 2923
2517, 2885, 2886, 2925, 2924
2518, 2886, 2887, 2926, 2925
2519, 2887, 2888, 2927, 2926
2520, 2888,  109,  110, 2927
2521,  182, 2889, 2928,  181
2522, 2889, 2890, 2929, 2928
2523, 2890, 2891, 2930, 2929
2524, 2891, 2892, 2931, 2930
2525, 2892, 2893, 2932, 2931
2526, 2893, 2894, 2933, 2932
2527, 2894, 2895, 2934, 2933
2528, 2895, 2896, 2935, 2934
2529, 2896, 2897, 2936, 2935
2530, 2897, 2898, 2937, 2936
2531, 2898, 2899, 2938, 2937
2532, 2899, 2900, 2939, 2938
2533, 2900, 2901, 2940, 2939
2534, 2901, 2902, 2941, 2940
2535, 2902, 2903, 2942, 2941
2536, 2903, 2904, 2943, 2942
2537, 2904, 2905, 2944, 2943
2538, 2905, 2906, 2945, 2944
2539, 2906, 2907, 2946, 2945
2540, 2907, 2908, 2947, 2946
2541, 2908, 2909, 2948, 2947
2542, 2909, 2910, 2949, 2948
2543, 2910, 2911, 2950, 2949
2544, 2911, 2912, 2951, 2950
2545, 2912, 2913, 2952, 2951
2546, 2913, 2914, 2953, 2952
2547, 2914, 2915, 2954, 2953
2548, 2915, 2916, 2955, 2954
2549, 2916, 2917, 2956, 2955
2550, 2917, 2918, 2957, 2956
2551, 2918, 2919, 2958, 2957
2552, 2919, 2920, 2959, 2958
2553, 2920, 2921, 2960, 2959
2554, 2921, 2922, 2961, 2960
2555, 2922, 2923, 2962, 2961
2556, 2923, 2924, 2963, 2962
2557, 2924, 2925, 2964, 2963
2558, 2925, 2926, 2965, 2964
2559, 2926, 2927, 2966, 2965
2560, 2927,  110,  111, 2966
2561,  181, 2928, 2967,  180
2562, 2928, 2929, 2968, 2967
2563, 2929, 2930, 2969, 2968
2564, 2930, 2931, 2970, 2969
2565, 2931, 2932, 2971, 2970
2566, 2932, 2933, 2972, 2971
2567, 2933, 2934, 2973, 2972
2568, 2934, 2935, 2974, 2973
2569, 2935, 2936, 2975, 2974
2570, 2936, 2937, 2976, 2975
2571, 2937, 2938, 2977, 2976
2572, 2938, 2939, 2978, 2977
2573, 2939, 2940, 2979, 2978
2574, 2940, 2941, 2980, 2979
2575, 2941, 2942, 2981, 2980
2576, 2942, 2943, 2982, 2981
2577, 2943, 2944, 2983, 2982
2578, 2944, 2945, 2984, 2983
2579, 2945, 2946, 2985, 2984
2580, 2946, 2947, 2986, 2985
2581, 2947, 2948, 2987, 2986
2582, 2948, 2949, 2988, 2987
2583, 2949, 2950, 2989, 2988
2584, 2950, 2951, 2990, 2989
2585, 2951, 2952, 2991, 2990
2586, 2952, 2953, 2992, 2991
2587, 2953, 2954, 2993, 2992
2588, 2954, 2955, 2994, 2993
2589, 2955, 2956, 2995, 2994
2590, 2956, 2957, 2996, 2995
2591, 2957, 2958, 2997, 2996
2592, 2958, 2959, 2998, 2997
2593, 2959, 2960, 2999, 2998
2594, 2960, 2961, 3000, 2999
2595, 2961, 2962, 3001, 3000
2596, 2962, 2963, 3002, 3001
2597, 2963, 2964, 3003, 3002
2598, 2964, 2965, 3004, 3003
2599, 2965, 2966, 3005, 3004
2600, 2966,  111,  112, 3005
2601,  180, 2967, 3006,  179
2602, 2967, 2968, 3007, 3006
2603, 2968, 2969, 3008, 3007
2604, 2969, 2970, 3009, 3008
2605, 2970, 2971, 3010, 3009
2606, 2971, 2972, 3011, 3010
2607, 2972, 2973, 3012, 3011
2608, 2973, 2974, 3013, 3012
2609, 2974, 2975, 3014, 3013
2610, 2975, 2976, 3015, 3014
2611, 2976, 2977, 3016, 3015
2612, 2977, 2978, 3017, 3016
2613, 2978, 2979, 3018, 3017
2614, 2979, 2980, 3019, 3018
2615, 2980, 2981, 3020, 3019
2616, 2981, 2982, 3021, 3020
2617, 2982, 2983, 3022, 3021
2618, 2983, 2984, 3023, 3022
2619, 2984, 2985, 3024, 3023
2620, 2985, 2986, 3025, 3024
2621, 2986, 2987, 3026, 3025
2622, 2987, 2988, 3027, 3026
2623, 2988, 2989, 3028, 3027
2624, 2989, 2990, 3029, 3028
2625, 2990, 2991, 3030, 3029
2626, 2991, 2992, 3031, 3030
2627, 2992, 2993, 3032, 3031
2628, 2993, 2994, 3033, 3032
2629, 2994, 2995, 3034, 3033
2630, 2995, 2996, 3035, 3034
2631, 2996, 2997, 3036, 3035
2632, 2997, 2998, 3037, 3036
2633, 2998, 2999, 3038, 3037
2634, 2999, 3000, 3039, 3038
2635, 3000, 3001, 3040, 3039
2636, 3001, 3002, 3041, 3040
2637, 3002, 3003, 3042, 3041
2638, 3003, 3004, 3043, 3042
2639, 3004, 3005, 3044, 3043
2640, 3005,  112,  113, 3044
2641,  179, 3006, 3045,  178
2642, 3006, 3007, 3046, 3045
2643, 3007, 3008, 3047, 3046
2644, 3008, 3009, 3048, 3047
2645, 3009, 3010, 3049, 3048
2646, 3010, 3011, 3050, 3049
2647, 3011, 3012, 3051, 3050
2648, 3012, 3013, 3052, 3051
2649, 3013, 3014, 3053, 3052
2650, 3014, 3015, 3054, 3053
2651, 3015, 3016, 3055, 3054
2652, 3016, 3017, 3056, 3055
2653, 3017, 3018, 3057, 3056
2654, 3018, 3019, 3058, 3057
2655, 3019, 3020, 3059, 3058
2656, 3020, 3021, 3060, 3059
2657, 3021, 3022, 3061, 3060
2658, 3022, 3023, 3062, 3061
2659, 3023, 3024, 3063, 3062
2660, 3024, 3025, 3064, 3063
2661, 3025, 3026, 3065, 3064
2662, 3026, 3027, 3066, 3065
2663, 3027, 3028, 3067, 3066
2664, 3028, 3029, 3068, 3067
2665, 3029, 3030, 3069, 3068
2666, 3030, 3031, 3070, 3069
2667, 3031, 3032, 3071, 3070
2668, 3032, 3033, 3072, 3071
2669, 3033, 3034, 3073, 3072
2670, 3034, 3035, 3074, 3073
2671, 3035, 3036, 3075, 3074
2672, 3036, 3037, 3076, 3075
2673, 3037, 3038, 3077, 3076
2674, 3038, 3039, 3078, 3077
2675, 3039, 3040, 3079, 3078
2676, 3040, 3041, 3080, 3079
2677, 3041, 3042, 3081, 3080
2678, 3042, 3043, 3082, 3081
2679, 3043, 3044, 3083, 3082
2680, 3044,  113,  114, 3083
2681,  178, 3045, 3084,  177
2682, 3045, 3046, 3085, 3084
2683, 3046, 3047, 3086, 3085
2684, 3047, 3048, 3087, 3086
2685, 3048, 3049, 3088, 3087
2686, 3049, 3050, 3089, 3088
2687, 3050, 3051, 3090, 3089
2688, 3051, 3052, 3091, 3090
2689, 3052, 3053, 3092, 3091
2690, 3053, 3054, 3093, 3092
2691, 3054, 3055, 3094, 3093
2692, 3055, 3056, 3095, 3094
2693, 3056, 3057, 3096, 3095
2694, 3057, 3058, 3097, 3096
2695, 3058, 3059, 3098, 3097
2696, 3059, 3060, 3099, 3098
2697, 3060, 3061, 3100, 3099
2698, 3061, 3062, 3101, 3100
2699, 3062, 3063, 3102, 3101
2700, 3063, 3064, 3103, 3102
2701, 3064, 3065, 3104, 3103
2702, 3065, 3066, 3105, 3104
2703, 3066, 3067, 3106, 3105
2704, 3067, 3068, 3107, 3106
2705, 3068, 3069, 3108, 3107
2706, 3069, 3070, 3109, 3108
2707, 3070, 3071, 3110, 3109
2708, 3071, 3072, 3111, 3110
2709, 3072, 3073, 3112, 3111
2710, 3073, 3074, 3113, 3112
2711, 3074, 3075, 3114, 3113
2712, 3075, 3076, 3115, 3114
2713, 3076, 3077, 3116, 3115
2714, 3077, 3078, 3117, 3116
2715, 3078, 3079, 3118, 3117
2716, 3079, 3080, 3119, 3118
2717, 3080, 3081, 3120, 3119
2718, 3081, 3082, 3121, 3120
2719, 3082, 3083, 3122, 3121
2720, 3083,  114,  115, 3122
2721,  177, 3084, 3123,  176
2722, 3084, 3085, 3124, 3123
2723, 3085, 3086, 3125, 3124
2724, 3086, 3087, 3126, 3125
2725, 3087, 3088, 3127, 3126
2726, 3088, 3089, 3128, 3127
2727, 3089, 3090, 3129, 3128
2728, 3090, 3091, 3130, 3129
2729, 3091, 3092, 3131, 3130
2730, 3092, 3093, 3132, 3131
2731, 3093, 3094, 3133, 3132
2732, 3094, 3095, 3134, 3133
2733, 3095, 3096, 3135, 3134
2734, 3096, 3097, 3136, 3135
2735, 3097, 3098, 3137, 3136
2736, 3098, 3099, 3138, 3137
2737, 3099, 3100, 3139, 3138
2738, 3100, 3101, 3140, 3139
2739, 3101, 3102, 3141, 3140
2740, 3102, 3103, 3142, 3141
2741, 3103, 3104, 3143, 3142
2742, 3104, 3105, 3144, 3143
2743, 3105, 3106, 3145, 3144
2744, 3106, 3107, 3146, 3145
2745, 3107, 3108, 3147, 3146
2746, 3108, 3109, 3148, 3147
2747, 3109, 3110, 3149, 3148
2748, 3110, 3111, 3150, 3149
2749, 3111, 3112, 3151, 3150
2750, 3112, 3113, 3152, 3151
2751, 3113, 3114, 3153, 3152
2752, 3114, 3115, 3154, 3153
2753, 3115, 3116, 3155, 3154
2754, 3116, 3117, 3156, 3155
2755, 3117, 3118, 3157, 3156
2756, 3118, 3119, 3158, 3157
2757, 3119, 3120, 3159, 3158
2758, 3120, 3121, 3160, 3159
2759, 3121, 3122, 3161, 3160
2760, 3122,  115,  116, 3161
2761,  176, 3123, 3162,  175
2762, 3123, 3124, 3163, 3162
2763, 3124, 3125, 3164, 3163
2764, 3125, 3126, 3165, 3164
2765, 3126, 3127, 3166, 3165
2766, 3127, 3128, 3167, 3166
2767, 3128, 3129, 3168, 3167
2768, 3129, 3130, 3169, 3168
2769, 3130, 3131, 3170, 3169
2770, 3131, 3132, 3171, 3170
2771, 3132, 3133, 3172, 3171
2772, 3133, 3134, 3173, 3172
2773, 3134, 3135, 3174, 3173
2774, 3135, 3136, 3175, 3174
2775, 3136, 3137, 3176, 3175
2776, 3137, 3138, 3177, 3176
2777, 3138, 3139, 3178, 3177
2778, 3139, 3140, 3179, 3178
2779, 3140, 3141, 3180, 3179
2780, 3141, 3142, 3181, 3180
2781, 3142, 3143, 3182, 3181
2782, 3143, 3144, 3183, 3182
2783, 3144, 3145, 3184, 3183
2784, 3145, 3146, 3185, 3184
2785, 3146, 3147, 3186, 3185
2786, 3147, 3148, 3187, 3186
2787, 3148, 3149, 3188, 3187
2788, 3149, 3150, 3189, 3188
2789, 3150, 3151, 3190, 3189
2790, 3151, 3152, 3191, 3190
2791, 3152, 3153, 3192, 3191
2792, 3153, 3154, 3193, 3192
2793, 3154, 3155, 3194, 3193
2794, 3155, 3156, 3195, 3194
2795, 3156, 3157, 3196, 3195
2796, 3157, 3158, 3197, 3196
2797, 3158, 3159, 3198, 3197
2798, 3159, 3160, 3199, 3198
2799, 3160, 3161, 3200, 3199
2800, 3161,  116,  117, 3200
2801,  175, 3162, 3201,  174
2802, 3162, 3163, 3202, 3201
2803, 3163, 3164, 3203, 3202
2804, 3164, 3165, 3204, 3203
2805, 3165, 3166, 3205, 3204
2806, 3166, 3167, 3206, 3205
2807, 3167, 3168, 3207, 3206
2808, 3168, 3169, 3208, 3207
2809, 3169, 3170, 3209, 3208
2810, 3170, 3171, 3210, 3209
2811, 3171, 3172, 3211, 3210
2812, 3172, 3173, 3212, 3211
2813, 3173, 3174, 3213, 3212
2814, 3174, 3175, 3214, 3213
2815, 3175, 3176, 3215, 3214
2816, 3176, 3177, 3216, 3215
2817, 3177, 3178, 3217, 3216
2818, 3178, 3179, 3218, 3217
2819, 3179, 3180, 3219, 3218
2820, 3180, 3181, 3220, 3219
2821, 3181, 3182, 3221, 3220
2822, 3182, 3183, 3222, 3221
2823, 3183, 3184, 3223, 3222
2824, 3184, 3185, 3224, 3223
2825, 3185, 3186, 3225, 3224
2826, 3186, 3187, 3226, 3225
2827, 3187, 3188, 3227, 3226
2828, 3188, 3189, 3228, 3227
2829, 3189, 3190, 3229, 3228
2830, 3190, 3191, 3230, 3229
2831, 3191, 3192, 3231, 3230
2832, 3192, 3193, 3232, 3231
2833, 3193, 3194, 3233, 3232
2834, 3194, 3195, 3234, 3233
2835, 3195, 3196, 3235, 3234
2836, 3196, 3197, 3236, 3235
2837, 3197, 3198, 3237, 3236
2838, 3198, 3199, 3238, 3237
2839, 3199, 3200, 3239, 3238
2840, 3200,  117,  118, 3239
2841,  174, 3201, 3240,  173
2842, 3201, 3202, 3241, 3240
2843, 3202, 3203, 3242, 3241
2844, 3203, 3204, 3243, 3242
2845, 3204, 3205, 3244, 3243
2846, 3205, 3206, 3245, 3244
2847, 3206, 3207, 3246, 3245
2848, 3207, 3208, 3247, 3246
2849, 3208, 3209, 3248, 3247
2850, 3209, 3210, 3249, 3248
2851, 3210, 3211, 3250, 3249
2852, 3211, 3212, 3251, 3250
2853, 3212, 3213, 3252, 3251
2854, 3213, 3214, 3253, 3252
2855, 3214, 3215, 3254, 3253
2856, 3215, 3216, 3255, 3254
2857, 3216, 3217, 3256, 3255
2858, 3217, 3218, 3257, 3256
2859, 3218, 3219, 3258, 3257
2860, 3219, 3220, 3259, 3258
2861, 3220, 3221, 3260, 3259
2862, 3221, 3222, 3261, 3260
2863, 3222, 3223, 3262, 3261
2864, 3223, 3224, 3263, 3262
2865, 3224, 3225, 3264, 3263
2866, 3225, 3226, 3265, 3264
2867, 3226, 3227, 3266, 3265
2868, 3227, 3228, 3267, 3266
2869, 3228, 3229, 3268, 3267
2870, 3229, 3230, 3269, 3268
2871, 3230, 3231, 3270, 3269
2872, 3231, 3232, 3271, 3270
2873, 3232, 3233, 3272, 3271
2874, 3233, 3234, 3273, 3272
2875, 3234, 3235, 3274, 3273
2876, 3235, 3236, 3275, 3274
2877, 3236, 3237, 3276, 3275
2878, 3237, 3238, 3277, 3276
2879, 3238, 3239, 3278, 3277
2880, 3239,  118,  119, 3278
2881,  173, 3240, 3279,  172
2882, 3240, 3241, 3280, 3279
2883, 3241, 3242, 3281, 3280
2884, 3242, 3243, 3282, 3281
2885, 3243, 3244, 3283, 3282
2886, 3244, 3245, 3284, 3283
2887, 3245, 3246, 3285, 3284
2888, 3246, 3247, 3286, 3285
2889, 3247, 3248, 3287, 3286
2890, 3248, 3249, 3288, 3287
2891, 3249, 3250, 3289, 3288
2892, 3250, 3251, 3290, 3289
2893, 3251, 3252, 3291, 3290
2894, 3252, 3253, 3292, 3291
2895, 3253, 3254, 3293, 3292
2896, 3254, 3255, 3294, 3293
2897, 3255, 3256, 3295, 3294
2898, 3256, 3257, 3296, 3295
2899, 3257, 3258, 3297, 3296
2900, 3258, 3259, 3298, 3297
2901, 3259, 3260, 3299, 3298
2902, 3260, 3261, 3300, 3299
2903, 3261, 3262, 3301, 3300
2904, 3262, 3263, 3302, 3301
2905, 3263, 3264, 3303, 3302
2906, 3264, 3265, 3304, 3303
2907, 3265, 3266, 3305, 3304
2908, 3266, 3267, 3306, 3305
2909, 3267, 3268, 3307, 3306
2910, 3268, 3269, 3308, 3307
2911, 3269, 3270, 3309, 3308
2912, 3270, 3271, 3310, 3309
2913, 3271, 3272, 3311, 3310
2914, 3272, 3273, 3312, 3311
2915, 3273, 3274, 3313, 3312
2916, 3274, 3275, 3314, 3313
2917, 3275, 3276, 3315, 3314
2918, 3276, 3277, 3316, 3315
2919, 3277, 3278, 3317, 3316
2920, 3278,  119,  120, 3317
2921,  172, 3279, 3318,  171
2922, 3279, 3280, 3319, 3318
2923, 3280, 3281, 3320, 3319
2924, 3281, 3282, 3321, 3320
2925, 3282, 3283, 3322, 3321
2926, 3283, 3284, 3323, 3322
2927, 3284, 3285, 3324, 3323
2928, 3285, 3286, 3325, 3324
2929, 3286, 3287, 3326, 3325
2930, 3287, 3288, 3327, 3326
2931, 3288, 3289, 3328, 3327
2932, 3289, 3290, 3329, 3328
2933, 3290, 3291, 3330, 3329
2934, 3291, 3292, 3331, 3330
2935, 3292, 3293, 3332, 3331
2936, 3293, 3294, 3333, 3332
2937, 3294, 3295, 3334, 3333
2938, 3295, 3296, 3335, 3334
2939, 3296, 3297, 3336, 3335
2940, 3297, 3298, 3337, 3336
2941, 3298, 3299, 3338, 3337
2942, 3299, 3300, 3339, 3338
2943, 3300, 3301, 3340, 3339
2944, 3301, 3302, 3341, 3340
2945, 3302, 3303, 3342, 3341
2946, 3303, 3304, 3343, 3342
2947, 3304, 3305, 3344, 3343
2948, 3305, 3306, 3345, 3344
2949, 3306, 3307, 3346, 3345
2950, 3307, 3308, 3347, 3346
2951, 3308, 3309, 3348, 3347
2952, 3309, 3310, 3349, 3348
2953, 3310, 3311, 3350, 3349
2954, 3311, 3312, 3351, 3350
2955, 3312, 3313, 3352, 3351
2956, 3313, 3314, 3353, 3352
2957, 3314, 3315, 3354, 3353
2958, 3315, 3316, 3355, 3354
2959, 3316, 3317, 3356, 3355
2960, 3317,  120,  121, 3356
2961,  171, 3318, 3357,  170
2962, 3318, 3319, 3358, 3357
2963, 3319, 3320, 3359, 3358
2964, 3320, 3321, 3360, 3359
2965, 3321, 3322, 3361, 3360
2966, 3322, 3323, 3362, 3361
2967, 3323, 3324, 3363, 3362
2968, 3324, 3325, 3364, 3363
2969, 3325, 3326, 3365, 3364
2970, 3326, 3327, 3366, 3365
2971, 3327, 3328, 3367, 3366
2972, 3328, 3329, 3368, 3367
2973, 3329, 3330, 3369, 3368
2974, 3330, 3331, 3370, 3369
2975, 3331, 3332, 3371, 3370
2976, 3332, 3333, 3372, 3371
2977, 3333, 3334, 3373, 3372
2978, 3334, 3335, 3374, 3373
2979, 3335, 3336, 3375, 3374
2980, 3336, 3337, 3376, 3375
2981, 3337, 3338, 3377, 3376
2982, 3338, 3339, 3378, 3377
2983, 3339, 3340, 3379, 3378
2984, 3340, 3341, 3380, 3379
2985, 3341, 3342, 3381, 3380
2986, 3342, 3343, 3382, 3381
2987, 3343, 3344, 3383, 3382
2988, 3344, 3345, 3384, 3383
2989, 3345, 3346, 3385, 3384
2990, 3346, 3347, 3386, 3385
2991, 3347, 3348, 3387, 3386
2992, 3348, 3349, 3388, 3387
2993, 3349, 3350, 3389, 3388
2994, 3350, 3351, 3390, 3389
2995, 3351, 3352, 3391, 3390
2996, 3352, 3353, 3392, 3391
2997, 3353, 3354, 3393, 3392
2998, 3354, 3355, 3394, 3393
2999, 3355, 3356, 3395, 3394
3000, 3356,  121,  122, 3395
3001,  170, 3357, 3396,  169
3002, 3357, 3358, 3397, 3396
3003, 3358, 3359, 3398, 3397
3004, 3359, 3360, 3399, 3398
3005, 3360, 3361, 3400, 3399
3006, 3361, 3362, 3401, 3400
3007, 3362, 3363, 3402, 3401
3008, 3363, 3364, 3403, 3402
3009, 3364, 3365, 3404, 3403
3010, 3365, 3366, 3405, 3404
3011, 3366, 3367, 3406, 3405
3012, 3367, 3368, 3407, 3406
3013, 3368, 3369, 3408, 3407
3014, 3369, 3370, 3409, 3408
3015, 3370, 3371, 3410, 3409
3016, 3371, 3372, 3411, 3410
3017, 3372, 3373, 3412, 3411
3018, 3373, 3374, 3413, 3412
3019, 3374, 3375, 3414, 3413
3020, 3375, 3376, 3415, 3414
3021, 3376, 3377, 3416, 3415
3022, 3377, 3378, 3417, 3416
3023, 3378, 3379, 3418, 3417
3024, 3379, 3380, 3419, 3418
3025, 3380, 3381, 3420, 3419
3026, 3381, 3382, 3421, 3420
3027, 3382, 3383, 3422, 3421
3028, 3383, 3384, 3423, 3422
3029, 3384, 3385, 3424, 3423
3030, 3385, 3386, 3425, 3424
3031, 3386, 3387, 3426, 3425
3032, 3387, 3388, 3427, 3426
3033, 3388, 3389, 3428, 3427
3034, 3389, 3390, 3429, 3428
3035, 3390, 3391, 3430, 3429
3036, 3391, 3392, 3431, 3430
3037, 3392, 3393, 3432, 3431
3038, 3393, 3394, 3433, 3432
3039, 3394, 3395, 3434, 3433
3040, 3395,  122,  123, 3434
3041,  169, 3396, 3435,  168
3042, 3396, 3397, 3436, 3435
3043, 3397, 3398, 3437, 3436
3044, 3398, 3399, 3438, 3437
3045, 3399, 3400, 3439, 3438
3046, 3400, 3401, 3440, 3439
3047, 3401, 3402, 3441, 3440
3048, 3402, 3403, 3442, 3441
3049, 3403, 3404, 3443, 3442
3050, 3404, 3405, 3444, 3443
3051, 3405, 3406, 3445, 3444
3052, 3406, 3407, 3446, 3445
3053, 3407, 3408, 3447, 3446
3054, 3408, 3409, 3448, 3447
3055, 3409, 3410, 3449, 3448
3056, 3410, 3411, 3450, 3449
3057, 3411, 3412, 3451, 3450
3058, 3412, 3413, 3452, 3451
3059, 3413, 3414, 3453, 3452
3060, 3414, 3415, 3454, 3453
3061, 3415, 3416, 3455, 3454
3062, 3416, 3417, 3456, 3455
3063, 3417, 3418, 3457, 3456
3064, 3418, 3419, 3458, 3457
3065, 3419, 3420, 3459, 3458
3066, 3420, 3421, 3460, 3459
3067, 3421, 3422, 3461, 3460
3068, 3422, 3423, 3462, 3461
3069, 3423, 3424, 3463, 3462
3070, 3424, 3425, 3464, 3463
3071, 3425, 3426, 3465, 3464
3072, 3426, 3427, 3466, 3465
3073, 3427, 3428, 3467, 3466
3074, 3428, 3429, 3468, 3467
3075, 3429, 3430, 3469, 3468
3076, 3430, 3431, 3470, 3469
3077, 3431, 3432, 3471, 3470
3078, 3432, 3433, 3472, 3471
3079, 3433, 3434, 3473, 3472
3080, 3434,  123,  124, 3473
3081,  168, 3435, 3474,  167
3082, 3435, 3436, 3475, 3474
3083, 3436, 3437, 3476, 3475
3084, 3437, 3438, 3477, 3476
3085, 3438, 3439, 3478, 3477
3086, 3439, 3440, 3479, 3478
3087, 3440, 3441, 3480, 3479
3088, 3441, 3442, 3481, 3480
3089, 3442, 3443, 3482, 3481
3090, 3443, 3444, 3483, 3482
3091, 3444, 3445, 3484, 3483
3092, 3445, 3446, 3485, 3484
3093, 3446, 3447, 3486, 3485
3094, 3447, 3448, 3487, 3486
3095, 3448, 3449, 3488, 3487
3096, 3449, 3450, 3489, 3488
3097, 3450, 3451, 3490, 3489
3098, 3451, 3452, 3491, 3490
3099, 3452, 3453, 3492, 3491
3100, 3453, 3454, 3493, 3492
3101, 3454, 3455, 3494, 3493
3102, 3455, 3456, 3495, 3494
3103, 3456, 3457, 3496, 3495
3104, 3457, 3458, 3497, 3496
3105, 3458, 3459, 3498, 3497
3106, 3459, 3460, 3499, 3498
3107, 3460, 3461, 3500, 3499
3108, 3461, 3462, 3501, 3500
3109, 3462, 3463, 3502, 3501
3110, 3463, 3464, 3503, 3502
3111, 3464, 3465, 3504, 3503
3112, 3465, 3466, 3505, 3504
3113, 3466, 3467, 3506, 3505
3114, 3467, 3468, 3507, 3506
3115, 3468, 3469, 3508, 3507
3116, 3469, 3470, 3509, 3508
3117, 3470, 3471, 3510, 3509
3118, 3471, 3472, 3511, 3510
3119, 3472, 3473, 3512, 3511
3120, 3473,  124,  125, 3512
3121,  167, 3474, 3513,  166
3122, 3474, 3475, 3514, 3513
3123, 3475, 3476, 3515, 3514
3124, 3476, 3477, 3516, 3515
3125, 3477, 3478, 3517, 3516
3126, 3478, 3479, 3518, 3517
3127, 3479, 3480, 3519, 3518
3128, 3480, 3481, 3520, 3519
3129, 3481, 3482, 3521, 3520
3130, 3482, 3483, 3522, 3521
3131, 3483, 3484, 3523, 3522
3132, 3484, 3485, 3524, 3523
3133, 3485, 3486, 3525, 3524
3134, 3486, 3487, 3526, 3525
3135, 3487, 3488, 3527, 3526
3136, 3488, 3489, 3528, 3527
3137, 3489, 3490, 3529, 3528
3138, 3490, 3491, 3530, 3529
3139, 3491, 3492, 3531, 3530
3140, 3492, 3493, 3532, 3531
3141, 3493, 3494, 3533, 3532
3142, 3494, 3495, 3534, 3533
3143, 3495, 3496, 3535, 3534
3144, 3496, 3497, 3536, 3535
3145, 3497, 3498, 3537, 3536
3146, 3498, 3499, 3538, 3537
3147, 3499, 3500, 3539, 3538
3148, 3500, 3501, 3540, 3539
3149, 3501, 3502, 3541, 3540
3150, 3502, 3503, 3542, 3541
3151, 3503, 3504, 3543, 3542
3152, 3504, 3505, 3544, 3543
3153, 3505, 3506, 3545, 3544
3154, 3506, 3507, 3546, 3545
3155, 3507, 3508, 3547, 3546
3156, 3508, 3509, 3548, 3547
3157, 3509, 3510, 3549, 3548
3158, 3510, 3511, 3550, 3549
3159, 3511, 3512, 3551, 3550
3160, 3512,  125,  126, 3551
3161,  166, 3513,  165,    4
3162, 3513, 3514,  164,  165
3163, 3514, 3515,  163,  164
3164, 3515, 3516,  162,  163
3165, 3516, 3517,  161,  162
3166, 3517, 3518,  160,  161
3167, 3518, 3519,  159,  160
3168, 3519, 3520,  158,  159
3169, 3520, 3521,  157,  158
3170, 3521, 3522,  156,  157
3171, 3522, 3523,  155,  156
3172, 3523, 3524,  154,  155
3173, 3524, 3525,  153,  154
3174, 3525, 3526,  152,  153
3175, 3526, 3527,  151,  152
3176, 3527, 3528,  150,  151
3177, 3528, 3529,  149,  150
3178, 3529, 3530,  148,  149
3179, 3530, 3531,  147,  148
3180, 3531, 3532,  146,  147
3181, 3532, 3533,  145,  146
3182, 3533, 3534,  144,  145
3183, 3534, 3535,  143,  144
3184, 3535, 3536,  142,  143
3185, 3536, 3537,  141,  142
3186, 3537, 3538,  140,  141
3187, 3538, 3539,  139,  140
3188, 3539, 3540,  138,  139
3189, 3540, 3541,  137,  138
3190, 3541, 3542,  136,  137
3191, 3542, 3543,  135,  136
3192, 3543, 3544,  134,  135
3193, 3544, 3545,  133,  134
3194, 3545, 3546,  132,  133
3195, 3546, 3547,  131,  132
3196, 3547, 3548,  130,  131
3197, 3548, 3549,  129,  130
3198, 3549, 3550,  128,  129
3199, 3550, 3551,  127,  128
3200, 3551,  126,    3,  127
3201,    4,  165, 3552,  357
3202,  165,  164, 3553, 3552
3203,  164,  163, 3554, 3553
3204,  163,  162, 3555, 3554
3205,  162,  161, 3556, 3555
3206,  161,  160, 3557, 3556
3207,  160,  159, 3558, 3557
3208,  159,  158, 3559, 3558
3209,  158,  157, 3560, 3559
3210,  157,  156, 3561, 3560
3211,  156,  155, 3562, 3561
3212,  155,  154, 3563, 3562
3213,  154,  153, 3564, 3563
3214,  153,  152, 3565, 3564
3215,  152,  151, 3566, 3565
3216,  151,  150, 3567, 3566
3217,  150,  149, 3568, 3567
3218,  149,  148, 3569, 3568
3219,  148,  147, 3570, 3569
3220,  147,  146, 3571, 3570
3221,  146,  145, 3572, 3571
3222,  145,  144, 3573, 3572
3223,  144,  143, 3574, 3573
3224,  143,  142, 3575, 3574
3225,  142,  141, 3576, 3575
3226,  141,  140, 3577, 3576
3227,  140,  139, 3578, 3577
3228,  139,  138, 3579, 3578
3229,  138,  137, 3580, 3579
3230,  137,  136, 3581, 3580
3231,  136,  135, 3582, 3581
3232,  135,  134, 3583, 3582
3233,  134,  133, 3584, 3583
3234,  133,  132, 3585, 3584
3235,  132,  131, 3586, 3585
3236,  131,  130, 3587, 3586
3237,  130,  129, 3588, 3587
3238,  129,  128, 3589, 3588
3239,  128,  127, 3590, 3589
3240,  127,    3,  245, 3590
3241,  357, 3552, 3591,  356
3242, 3552, 3553, 3592, 3591
3243, 3553, 3554, 3593, 3592
3244, 3554, 3555, 3594, 3593
3245, 3555, 3556, 3595, 3594
3246, 3556, 3557, 3596, 3595
3247, 3557, 3558, 3597, 3596
3248, 3558, 3559, 3598, 3597
3249, 3559, 3560, 3599, 3598
3250, 3560, 3561, 3600, 3599
3251, 3561, 3562, 3601, 3600
3252, 3562, 3563, 3602, 3601
3253, 3563, 3564, 3603, 3602
3254, 3564, 3565, 3604, 3603
3255, 3565, 3566, 3605, 3604
3256, 3566, 3567, 3606, 3605
3257, 3567, 3568, 3607, 3606
3258, 3568, 3569, 3608, 3607
3259, 3569, 3570, 3609, 3608
3260, 3570, 3571, 3610, 3609
3261, 3571, 3572, 3611, 3610
3262, 3572, 3573, 3612, 3611
3263, 3573, 3574, 3613, 3612
3264, 3574, 3575, 3614, 3613
3265, 3575, 3576, 3615, 3614
3266, 3576, 3577, 3616, 3615
3267, 3577, 3578, 3617, 3616
3268, 3578, 3579, 3618, 3617
3269, 3579, 3580, 3619, 3618
3270, 3580, 3581, 3620, 3619
3271, 3581, 3582, 3621, 3620
3272, 3582, 3583, 3622, 3621
3273, 3583, 3584, 3623, 3622
3274, 3584, 3585, 3624, 3623
3275, 3585, 3586, 3625, 3624
3276, 3586, 3587, 3626, 3625
3277, 3587, 3588, 3627, 3626
3278, 3588, 3589, 3628, 3627
3279, 3589, 3590, 3629, 3628
3280, 3590,  245,  246, 3629
3281,  356, 3591, 3630,  355
3282, 3591, 3592, 3631, 3630
3283, 3592, 3593, 3632, 3631
3284, 3593, 3594, 3633, 3632
3285, 3594, 3595, 3634, 3633
3286, 3595, 3596, 3635, 3634
3287, 3596, 3597, 3636, 3635
3288, 3597, 3598, 3637, 3636
3289, 3598, 3599, 3638, 3637
3290, 3599, 3600, 3639, 3638
3291, 3600, 3601, 3640, 3639
3292, 3601, 3602, 3641, 3640
3293, 3602, 3603, 3642, 3641
3294, 3603, 3604, 3643, 3642
3295, 3604, 3605, 3644, 3643
3296, 3605, 3606, 3645, 3644
3297, 3606, 3607, 3646, 3645
3298, 3607, 3608, 3647, 3646
3299, 3608, 3609, 3648, 3647
3300, 3609, 3610, 3649, 3648
3301, 3610, 3611, 3650, 3649
3302, 3611, 3612, 3651, 3650
3303, 3612, 3613, 3652, 3651
3304, 3613, 3614, 3653, 3652
3305, 3614, 3615, 3654, 3653
3306, 3615, 3616, 3655, 3654
3307, 3616, 3617, 3656, 3655
3308, 3617, 3618, 3657, 3656
3309, 3618, 3619, 3658, 3657
3310, 3619, 3620, 3659, 3658
3311, 3620, 3621, 3660, 3659
3312, 3621, 3622, 3661, 3660
3313, 3622, 3623, 3662, 3661
3314, 3623, 3624, 3663, 3662
3315, 3624, 3625, 3664, 3663
3316, 3625, 3626, 3665, 3664
3317, 3626, 3627, 3666, 3665
3318, 3627, 3628, 3667, 3666
3319, 3628, 3629, 3668, 3667
3320, 3629,  246,  247, 3668
3321,  355, 3630, 3669,  354
3322, 3630, 3631, 3670, 3669
3323, 3631, 3632, 3671, 3670
3324, 3632, 3633, 3672, 3671
3325, 3633, 3634, 3673, 3672
3326, 3634, 3635, 3674, 3673
3327, 3635, 3636, 3675, 3674
3328, 3636, 3637, 3676, 3675
3329, 3637, 3638, 3677, 3676
3330, 3638, 3639, 3678, 3677
3331, 3639, 3640, 3679, 3678
3332, 3640, 3641, 3680, 3679
3333, 3641, 3642, 3681, 3680
3334, 3642, 3643, 3682, 3681
3335, 3643, 3644, 3683, 3682
3336, 3644, 3645, 3684, 3683
3337, 3645, 3646, 3685, 3684
3338, 3646, 3647, 3686, 3685
3339, 3647, 3648, 3687, 3686
3340, 3648, 3649, 3688, 3687
3341, 3649, 3650, 3689, 3688
3342, 3650, 3651, 3690, 3689
3343, 3651, 3652, 3691, 3690
3344, 3652, 3653, 3692, 3691
3345, 3653, 3654, 3693, 3692
3346, 3654, 3655, 3694, 3693
3347, 3655, 3656, 3695, 3694
3348, 3656, 3657, 3696, 3695
3349, 3657, 3658, 3697, 3696
3350, 3658, 3659, 3698, 3697
3351, 3659, 3660, 3699, 3698
3352, 3660, 3661, 3700, 3699
3353, 3661, 3662, 3701, 3700
3354, 3662, 3663, 3702, 3701
3355, 3663, 3664, 3703, 3702
3356, 3664, 3665, 3704, 3703
3357, 3665, 3666, 3705, 3704
3358, 3666, 3667, 3706, 3705
3359, 3667, 3668, 3707, 3706
3360, 3668,  247,  248, 3707
3361,  354, 3669, 3708,  353
3362, 3669, 3670, 3709, 3708
3363, 3670, 3671, 3710, 3709
3364, 3671, 3672, 3711, 3710
3365, 3672, 3673, 3712, 3711
3366, 3673, 3674, 3713, 3712
3367, 3674, 3675, 3714, 3713
3368, 3675, 3676, 3715, 3714
3369, 3676, 3677, 3716, 3715
3370, 3677, 3678, 3717, 3716
3371, 3678, 3679, 3718, 3717
3372, 3679, 3680, 3719, 3718
3373, 3680, 3681, 3720, 3719
3374, 3681, 3682, 3721, 3720
3375, 3682, 3683, 3722, 3721
3376, 3683, 3684, 3723, 3722
3377, 3684, 3685, 3724, 3723
3378, 3685, 3686, 3725, 3724
3379, 3686, 3687, 3726, 3725
3380, 3687, 3688, 3727, 3726
3381, 3688, 3689, 3728, 3727
3382, 3689, 3690, 3729, 3728
3383, 3690, 3691, 3730, 3729
3384, 3691, 3692, 3731, 3730
3385, 3692, 3693, 3732, 3731
3386, 3693, 3694, 3733, 3732
3387, 3694, 3695, 3734, 3733
3388, 3695, 3696, 3735, 3734
3389, 3696, 3697, 3736, 3735
3390, 3697, 3698, 3737, 3736
3391, 3698, 3699, 3738, 3737
3392, 3699, 3700, 3739, 3738
3393, 3700, 3701, 3740, 3739
3394, 3701, 3702, 3741, 3740
3395, 3702, 3703, 3742, 3741
3396, 3703, 3704, 3743, 3742
3397, 3704, 3705, 3744, 3743
3398, 3705, 3706, 3745, 3744
3399, 3706, 3707, 3746, 3745
3400, 3707,  248,  249, 3746
3401,  353, 3708, 3747,  352
3402, 3708, 3709, 3748, 3747
3403, 3709, 3710, 3749, 3748
3404, 3710, 3711, 3750, 3749
3405, 3711, 3712, 3751, 3750
3406, 3712, 3713, 3752, 3751
3407, 3713, 3714, 3753, 3752
3408, 3714, 3715, 3754, 3753
3409, 3715, 3716, 3755, 3754
3410, 3716, 3717, 3756, 3755
3411, 3717, 3718, 3757, 3756
3412, 3718, 3719, 3758, 3757
3413, 3719, 3720, 3759, 3758
3414, 3720, 3721, 3760, 3759
3415, 3721, 3722, 3761, 3760
3416, 3722, 3723, 3762, 3761
3417, 3723, 3724, 3763, 3762
3418, 3724, 3725, 3764, 3763
3419, 3725, 3726, 3765, 3764
3420, 3726, 3727, 3766, 3765
3421, 3727, 3728, 3767, 3766
3422, 3728, 3729, 3768, 3767
3423, 3729, 3730, 3769, 3768
3424, 3730, 3731, 3770, 3769
3425, 3731, 3732, 3771, 3770
3426, 3732, 3733, 3772, 3771
3427, 3733, 3734, 3773, 3772
3428, 3734, 3735, 3774, 3773
3429, 3735, 3736, 3775, 3774
3430, 3736, 3737, 3776, 3775
3431, 3737, 3738, 3777, 3776
3432, 3738, 3739, 3778, 3777
3433, 3739, 3740, 3779, 3778
3434, 3740, 3741, 3780, 3779
3435, 3741, 3742, 3781, 3780
3436, 3742, 3743, 3782, 3781
3437, 3743, 3744, 3783, 3782
3438, 3744, 3745, 3784, 3783
3439, 3745, 3746, 3785, 3784
3440, 3746,  249,  250, 3785
3441,  352, 3747, 3786,  351
3442, 3747, 3748, 3787, 3786
3443, 3748, 3749, 3788, 3787
3444, 3749, 3750, 3789, 3788
3445, 3750, 3751, 3790, 3789
3446, 3751, 3752, 3791, 3790
3447, 3752, 3753, 3792, 3791
3448, 3753, 3754, 3793, 3792
3449, 3754, 3755, 3794, 3793
3450, 3755, 3756, 3795, 3794
3451, 3756, 3757, 3796, 3795
3452, 3757, 3758, 3797, 3796
3453, 3758, 3759, 3798, 3797
3454, 3759, 3760, 3799, 3798
3455, 3760, 3761, 3800, 3799
3456, 3761, 3762, 3801, 3800
3457, 3762, 3763, 3802, 3801
3458, 3763, 3764, 3803, 3802
3459, 3764, 3765, 3804, 3803
3460, 3765, 3766, 3805, 3804
3461, 3766, 3767, 3806, 3805
3462, 3767, 3768, 3807, 3806
3463, 3768, 3769, 3808, 3807
3464, 3769, 3770, 3809, 3808
3465, 3770, 3771, 3810, 3809
3466, 3771, 3772, 3811, 3810
3467, 3772, 3773, 3812, 3811
3468, 3773, 3774, 3813, 3812
3469, 3774, 3775, 3814, 3813
3470, 3775, 3776, 3815, 3814
3471, 3776, 3777, 3816, 3815
3472, 3777, 3778, 3817, 3816
3473, 3778, 3779, 3818, 3817
3474, 3779, 3780, 3819, 3818
3475, 3780, 3781, 3820, 3819
3476, 3781, 3782, 3821, 3820
3477, 3782, 3783, 3822, 3821
3478, 3783, 3784, 3823, 3822
3479, 3784, 3785, 3824, 3823
3480, 3785,  250,  251, 3824
3481,  351, 3786, 3825,  350
3482, 3786, 3787, 3826, 3825
3483, 3787, 3788, 3827, 3826
3484, 3788, 3789, 3828, 3827
3485, 3789, 3790, 3829, 3828
3486, 3790, 3791, 3830, 3829
3487, 3791, 3792, 3831, 3830
3488, 3792, 3793, 3832, 3831
3489, 3793, 3794, 3833, 3832
3490, 3794, 3795, 3834, 3833
3491, 3795, 3796, 3835, 3834
3492, 3796, 3797, 3836, 3835
3493, 3797, 3798, 3837, 3836
3494, 3798, 3799, 3838, 3837
3495, 3799, 3800, 3839, 3838
3496, 3800, 3801, 3840, 3839
3497, 3801, 3802, 3841, 3840
3498, 3802, 3803, 3842, 3841
3499, 3803, 3804, 3843, 3842
3500, 3804, 3805, 3844, 3843
3501, 3805, 3806, 3845, 3844
3502, 3806, 3807, 3846, 3845
3503, 3807, 3808, 3847, 3846
3504, 3808, 3809, 3848, 3847
3505, 3809, 3810, 3849, 3848
3506, 3810, 3811, 3850, 3849
3507, 3811, 3812, 3851, 3850
3508, 3812, 3813, 3852, 3851
3509, 3813, 3814, 3853, 3852
3510, 3814, 3815, 3854, 3853
3511, 3815, 3816, 3855, 3854
3512, 3816, 3817, 3856, 3855
3513, 3817, 3818, 3857, 3856
3514, 3818, 3819, 3858, 3857
3515, 3819, 3820, 3859, 3858
3516, 3820, 3821, 3860, 3859
3517, 3821, 3822, 3861, 3860
3518, 3822, 3823, 3862, 3861
3519, 3823, 3824, 3863, 3862
3520, 3824,  251,  252, 3863
3521,  350, 3825, 3864,  349
3522, 3825, 3826, 3865, 3864
3523, 3826, 3827, 3866, 3865
3524, 3827, 3828, 3867, 3866
3525, 3828, 3829, 3868, 3867
3526, 3829, 3830, 3869, 3868
3527, 3830, 3831, 3870, 3869
3528, 3831, 3832, 3871, 3870
3529, 3832, 3833, 3872, 3871
3530, 3833, 3834, 3873, 3872
3531, 3834, 3835, 3874, 3873
3532, 3835, 3836, 3875, 3874
3533, 3836, 3837, 3876, 3875
3534, 3837, 3838, 3877, 3876
3535, 3838, 3839, 3878, 3877
3536, 3839, 3840, 3879, 3878
3537, 3840, 3841, 3880, 3879
3538, 3841, 3842, 3881, 3880
3539, 3842, 3843, 3882, 3881
3540, 3843, 3844, 3883, 3882
3541, 3844, 3845, 3884, 3883
3542, 3845, 3846, 3885, 3884
3543, 3846, 3847, 3886, 3885
3544, 3847, 3848, 3887, 3886
3545, 3848, 3849, 3888, 3887
3546, 3849, 3850, 3889, 3888
3547, 3850, 3851, 3890, 3889
3548, 3851, 3852, 3891, 3890
3549, 3852, 3853, 3892, 3891
3550, 3853, 3854, 3893, 3892
3551, 3854, 3855, 3894, 3893
3552, 3855, 3856, 3895, 3894
3553, 3856, 3857, 3896, 3895
3554, 3857, 3858, 3897, 3896
3555, 3858, 3859, 3898, 3897
3556, 3859, 3860, 3899, 3898
3557, 3860, 3861, 3900, 3899
3558, 3861, 3862, 3901, 3900
3559, 3862, 3863, 3902, 3901
3560, 3863,  252,  253, 3902
3561,  349, 3864, 3903,  348
3562, 3864, 3865, 3904, 3903
3563, 3865, 3866, 3905, 3904
3564, 3866, 3867, 3906, 3905
3565, 3867, 3868, 3907, 3906
3566, 3868, 3869, 3908, 3907
3567, 3869, 3870, 3909, 3908
3568, 3870, 3871, 3910, 3909
3569, 3871, 3872, 3911, 3910
3570, 3872, 3873, 3912, 3911
3571, 3873, 3874, 3913, 3912
3572, 3874, 3875, 3914, 3913
3573, 3875, 3876, 3915, 3914
3574, 3876, 3877, 3916, 3915
3575, 3877, 3878, 3917, 3916
3576, 3878, 3879, 3918, 3917
3577, 3879, 3880, 3919, 3918
3578, 3880, 3881, 3920, 3919
3579, 3881, 3882, 3921, 3920
3580, 3882, 3883, 3922, 3921
3581, 3883, 3884, 3923, 3922
3582, 3884, 3885, 3924, 3923
3583, 3885, 3886, 3925, 3924
3584, 3886, 3887, 3926, 3925
3585, 3887, 3888, 3927, 3926
3586, 3888, 3889, 3928, 3927
3587, 3889, 3890, 3929, 3928
3588, 3890, 3891, 3930, 3929
3589, 3891, 3892, 3931, 3930
3590, 3892, 3893, 3932, 3931
3591, 3893, 3894, 3933, 3932
3592, 3894, 3895, 3934, 3933
3593, 3895, 3896, 3935, 3934
3594, 3896, 3897, 3936, 3935
3595, 3897, 3898, 3937, 3936
3596, 3898, 3899, 3938, 3937
3597, 3899, 3900, 3939, 3938
3598, 3900, 3901, 3940, 3939
3599, 3901, 3902, 3941, 3940
3600, 3902,  253,  254, 3941
3601,  348, 3903, 3942,  347
3602, 3903, 3904, 3943, 3942
3603, 3904, 3905, 3944, 3943
3604, 3905, 3906, 3945, 3944
3605, 3906, 3907, 3946, 3945
3606, 3907, 3908, 3947, 3946
3607, 3908, 3909, 3948, 3947
3608, 3909, 3910, 3949, 3948
3609, 3910, 3911, 3950, 3949
3610, 3911, 3912, 3951, 3950
3611, 3912, 3913, 3952, 3951
3612, 3913, 3914, 3953, 3952
3613, 3914, 3915, 3954, 3953
3614, 3915, 3916, 3955, 3954
3615, 3916, 3917, 3956, 3955
3616, 3917, 3918, 3957, 3956
3617, 3918, 3919, 3958, 3957
3618, 3919, 3920, 3959, 3958
3619, 3920, 3921, 3960, 3959
3620, 3921, 3922, 3961, 3960
3621, 3922, 3923, 3962, 3961
3622, 3923, 3924, 3963, 3962
3623, 3924, 3925, 3964, 3963
3624, 3925, 3926, 3965, 3964
3625, 3926, 3927, 3966, 3965
3626, 3927, 3928, 3967, 3966
3627, 3928, 3929, 3968, 3967
3628, 3929, 3930, 3969, 3968
3629, 3930, 3931, 3970, 3969
3630, 3931, 3932, 3971, 3970
3631, 3932, 3933, 3972, 3971
3632, 3933, 3934, 3973, 3972
3633, 3934, 3935, 3974, 3973
3634, 3935, 3936, 3975, 3974
3635, 3936, 3937, 3976, 3975
3636, 3937, 3938, 3977, 3976
3637, 3938, 3939, 3978, 3977
3638, 3939, 3940, 3979, 3978
3639, 3940, 3941, 3980, 3979
3640, 3941,  254,  255, 3980
3641,  347, 3942, 3981,  346
3642, 3942, 3943, 3982, 3981
3643, 3943, 3944, 3983, 3982
3644, 3944, 3945, 3984, 3983
3645, 3945, 3946, 3985, 3984
3646, 3946, 3947, 3986, 3985
3647, 3947, 3948, 3987, 3986
3648, 3948, 3949, 3988, 3987
3649, 3949, 3950, 3989, 3988
3650, 3950, 3951, 3990, 3989
3651, 3951, 3952, 3991, 3990
3652, 3952, 3953, 3992, 3991
3653, 3953, 3954, 3993, 3992
3654, 3954, 3955, 3994, 3993
3655, 3955, 3956, 3995, 3994
3656, 3956, 3957, 3996, 3995
3657, 3957, 3958, 3997, 3996
3658, 3958, 3959, 3998, 3997
3659, 3959, 3960, 3999, 3998
3660, 3960, 3961, 4000, 3999
3661, 3961, 3962, 4001, 4000
3662, 3962, 3963, 4002, 4001
3663, 3963, 3964, 4003, 4002
3664, 3964, 3965, 4004, 4003
3665, 3965, 3966, 4005, 4004
3666, 3966, 3967, 4006, 4005
3667, 3967, 3968, 4007, 4006
3668, 3968, 3969, 4008, 4007
3669, 3969, 3970, 4009, 4008
3670, 3970, 3971, 4010, 4009
3671, 3971, 3972, 4011, 4010
3672, 3972, 3973, 4012, 4011
3673, 3973, 3974, 4013, 4012
3674, 3974, 3975, 4014, 4013
3675, 3975, 3976, 4015, 4014
3676, 3976, 3977, 4016, 4015
3677, 3977, 3978, 4017, 4016
3678, 3978, 3979, 4018, 4017
3679, 3979, 3980, 4019, 4018
3680, 3980,  255,  256, 4019
3681,  346, 3981, 4020,  345
3682, 3981, 3982, 4021, 4020
3683, 3982, 3983, 4022, 4021
3684, 3983, 3984, 4023, 4022
3685, 3984, 3985, 4024, 4023
3686, 3985, 3986, 4025, 4024
3687, 3986, 3987, 4026, 4025
3688, 3987, 3988, 4027, 4026
3689, 3988, 3989, 4028, 4027
3690, 3989, 3990, 4029, 4028
3691, 3990, 3991, 4030, 4029
3692, 3991, 3992, 4031, 4030
3693, 3992, 3993, 4032, 4031
3694, 3993, 3994, 4033, 4032
3695, 3994, 3995, 4034, 4033
3696, 3995, 3996, 4035, 4034
3697, 3996, 3997, 4036, 4035
3698, 3997, 3998, 4037, 4036
3699, 3998, 3999, 4038, 4037
3700, 3999, 4000, 4039, 4038
3701, 4000, 4001, 4040, 4039
3702, 4001, 4002, 4041, 4040
3703, 4002, 4003, 4042, 4041
3704, 4003, 4004, 4043, 4042
3705, 4004, 4005, 4044, 4043
3706, 4005, 4006, 4045, 4044
3707, 4006, 4007, 4046, 4045
3708, 4007, 4008, 4047, 4046
3709, 4008, 4009, 4048, 4047
3710, 4009, 4010, 4049, 4048
3711, 4010, 4011, 4050, 4049
3712, 4011, 4012, 4051, 4050
3713, 4012, 4013, 4052, 4051
3714, 4013, 4014, 4053, 4052
3715, 4014, 4015, 4054, 4053
3716, 4015, 4016, 4055, 4054
3717, 4016, 4017, 4056, 4055
3718, 4017, 4018, 4057, 4056
3719, 4018, 4019, 4058, 4057
3720, 4019,  256,  257, 4058
3721,  345, 4020, 4059,  344
3722, 4020, 4021, 4060, 4059
3723, 4021, 4022, 4061, 4060
3724, 4022, 4023, 4062, 4061
3725, 4023, 4024, 4063, 4062
3726, 4024, 4025, 4064, 4063
3727, 4025, 4026, 4065, 4064
3728, 4026, 4027, 4066, 4065
3729, 4027, 4028, 4067, 4066
3730, 4028, 4029, 4068, 4067
3731, 4029, 4030, 4069, 4068
3732, 4030, 4031, 4070, 4069
3733, 4031, 4032, 4071, 4070
3734, 4032, 4033, 4072, 4071
3735, 4033, 4034, 4073, 4072
3736, 4034, 4035, 4074, 4073
3737, 4035, 4036, 4075, 4074
3738, 4036, 4037, 4076, 4075
3739, 4037, 4038, 4077, 4076
3740, 4038, 4039, 4078, 4077
3741, 4039, 4040, 4079, 4078
3742, 4040, 4041, 4080, 4079
3743, 4041, 4042, 4081, 4080
3744, 4042, 4043, 4082, 4081
3745, 4043, 4044, 4083, 4082
3746, 4044, 4045, 4084, 4083
3747, 4045, 4046, 4085, 4084
3748, 4046, 4047, 4086, 4085
3749, 4047, 4048, 4087, 4086
3750, 4048, 4049, 4088, 4087
3751, 4049, 4050, 4089, 4088
3752, 4050, 4051, 4090, 4089
3753, 4051, 4052, 4091, 4090
3754, 4052, 4053, 4092, 4091
3755, 4053, 4054, 4093, 4092
3756, 4054, 4055, 4094, 4093
3757, 4055, 4056, 4095, 4094
3758, 4056, 4057, 4096, 4095
3759, 4057, 4058, 4097, 4096
3760, 4058,  257,  258, 4097
3761,  344, 4059, 4098,  343
3762, 4059, 4060, 4099, 4098
3763, 4060, 4061, 4100, 4099
3764, 4061, 4062, 4101, 4100
3765, 4062, 4063, 4102, 4101
3766, 4063, 4064, 4103, 4102
3767, 4064, 4065, 4104, 4103
3768, 4065, 4066, 4105, 4104
3769, 4066, 4067, 4106, 4105
3770, 4067, 4068, 4107, 4106
3771, 4068, 4069, 4108, 4107
3772, 4069, 4070, 4109, 4108
3773, 4070, 4071, 4110, 4109
3774, 4071, 4072, 4111, 4110
3775, 4072, 4073, 4112, 4111
3776, 4073, 4074, 4113, 4112
3777, 4074, 4075, 4114, 4113
3778, 4075, 4076, 4115, 4114
3779, 4076, 4077, 4116, 4115
3780, 4077, 4078, 4117, 4116
3781, 4078, 4079, 4118, 4117
3782, 4079, 4080, 4119, 4118
3783, 4080, 4081, 4120, 4119
3784, 4081, 4082, 4121, 4120
3785, 4082, 4083, 4122, 4121
3786, 4083, 4084, 4123, 4122
3787, 4084, 4085, 4124, 4123
3788, 4085, 4086, 4125, 4124
3789, 4086, 4087, 4126, 4125
3790, 4087, 4088, 4127, 4126
3791, 4088, 4089, 4128, 4127
3792, 4089, 4090, 4129, 4128
3793, 4090, 4091, 4130, 4129
3794, 4091, 4092, 4131, 4130
3795, 4092, 4093, 4132, 4131
3796, 4093, 4094, 4133, 4132
3797, 4094, 4095, 4134, 4133
3798, 4095, 4096, 4135, 4134
3799, 4096, 4097, 4136, 4135
3800, 4097,  258,  259, 4136
3801,  343, 4098, 4137,  342
3802, 4098, 4099, 4138, 4137
3803, 4099, 4100, 4139, 4138
3804, 4100, 4101, 4140, 4139
3805, 4101, 4102, 4141, 4140
3806, 4102, 4103, 4142, 4141
3807, 4103, 4104, 4143, 4142
3808, 4104, 4105, 4144, 4143
3809, 4105, 4106, 4145, 4144
3810, 4106, 4107, 4146, 4145
3811, 4107, 4108, 4147, 4146
3812, 4108, 4109, 4148, 4147
3813, 4109, 4110, 4149, 4148
3814, 4110, 4111, 4150, 4149
3815, 4111, 4112, 4151, 4150
3816, 4112, 4113, 4152, 4151
3817, 4113, 4114, 4153, 4152
3818, 4114, 4115, 4154, 4153
3819, 4115, 4116, 4155, 4154
3820, 4116, 4117, 4156, 4155
3821, 4117, 4118, 4157, 4156
3822, 4118, 4119, 4158, 4157
3823, 4119, 4120, 4159, 4158
3824, 4120, 4121, 4160, 4159
3825, 4121, 4122, 4161, 4160
3826, 4122, 4123, 4162, 4161
3827, 4123, 4124, 4163, 4162
3828, 4124, 4125, 4164, 4163
3829, 4125, 4126, 4165, 4164
3830, 4126, 4127, 4166, 4165
3831, 4127, 4128, 4167, 4166
3832, 4128, 4129, 4168, 4167
3833, 4129, 4130, 4169, 4168
3834, 4130, 4131, 4170, 4169
3835, 4131, 4132, 4171, 4170
3836, 4132, 4133, 4172, 4171
3837, 4133, 4134, 4173, 4172
3838, 4134, 4135, 4174, 4173
3839, 4135, 4136, 4175, 4174
3840, 4136,  259,  260, 4175
3841,  342, 4137, 4176,  341
3842, 4137, 4138, 4177, 4176
3843, 4138, 4139, 4178, 4177
3844, 4139, 4140, 4179, 4178
3845, 4140, 4141, 4180, 4179
3846, 4141, 4142, 4181, 4180
3847, 4142, 4143, 4182, 4181
3848, 4143, 4144, 4183, 4182
3849, 4144, 4145, 4184, 4183
3850, 4145, 4146, 4185, 4184
3851, 4146, 4147, 4186, 4185
3852, 4147, 4148, 4187, 4186
3853, 4148, 4149, 4188, 4187
3854, 4149, 4150, 4189, 4188
3855, 4150, 4151, 4190, 4189
3856, 4151, 4152, 4191, 4190
3857, 4152, 4153, 4192, 4191
3858, 4153, 4154, 4193, 4192
3859, 4154, 4155, 4194, 4193
3860, 4155, 4156, 4195, 4194
3861, 4156, 4157, 4196, 4195
3862, 4157, 4158, 4197, 4196
3863, 4158, 4159, 4198, 4197
3864, 4159, 4160, 4199, 4198
3865, 4160, 4161, 4200, 4199
3866, 4161, 4162, 4201, 4200
3867, 4162, 4163, 4202, 4201
3868, 4163, 4164, 4203, 4202
3869, 4164, 4165, 4204, 4203
3870, 4165, 4166, 4205, 4204
3871, 4166, 4167, 4206, 4205
3872, 4167, 4168, 4207, 4206
3873, 4168, 4169, 4208, 4207
3874, 4169, 4170, 4209, 4208
3875, 4170, 4171, 4210, 4209
3876, 4171, 4172, 4211, 4210
3877, 4172, 4173, 4212, 4211
3878, 4173, 4174, 4213, 4212
3879, 4174, 4175, 4214, 4213
3880, 4175,  260,  261, 4214
3881,  341, 4176, 4215,  340
3882, 4176, 4177, 4216, 4215
3883, 4177, 4178, 4217, 4216
3884, 4178, 4179, 4218, 4217
3885, 4179, 4180, 4219, 4218
3886, 4180, 4181, 4220, 4219
3887, 4181, 4182, 4221, 4220
3888, 4182, 4183, 4222, 4221
3889, 4183, 4184, 4223, 4222
3890, 4184, 4185, 4224, 4223
3891, 4185, 4186, 4225, 4224
3892, 4186, 4187, 4226, 4225
3893, 4187, 4188, 4227, 4226
3894, 4188, 4189, 4228, 4227
3895, 4189, 4190, 4229, 4228
3896, 4190, 4191, 4230, 4229
3897, 4191, 4192, 4231, 4230
3898, 4192, 4193, 4232, 4231
3899, 4193, 4194, 4233, 4232
3900, 4194, 4195, 4234, 4233
3901, 4195, 4196, 4235, 4234
3902, 4196, 4197, 4236, 4235
3903, 4197, 4198, 4237, 4236
3904, 4198, 4199, 4238, 4237
3905, 4199, 4200, 4239, 4238
3906, 4200, 4201, 4240, 4239
3907, 4201, 4202, 4241, 4240
3908, 4202, 4203, 4242, 4241
3909, 4203, 4204, 4243, 4242
3910, 4204, 4205, 4244, 4243
3911, 4205, 4206, 4245, 4244
3912, 4206, 4207, 4246, 4245
3913, 4207, 4208, 4247, 4246
3914, 4208, 4209, 4248, 4247
3915, 4209, 4210, 4249, 4248
3916, 4210, 4211, 4250, 4249
3917, 4211, 4212, 4251, 4250
3918, 4212, 4213, 4252, 4251
3919, 4213, 4214, 4253, 4252
3920, 4214,  261,  262, 4253
3921,  340, 4215, 4254,  339
3922, 4215, 4216, 4255, 4254
3923, 4216, 4217, 4256, 4255
3924, 4217, 4218, 4257, 4256
3925, 4218, 4219, 4258, 4257
3926, 4219, 4220, 4259, 4258
3927, 4220, 4221, 4260, 4259
3928, 4221, 4222, 4261, 4260
3929, 4222, 4223, 4262, 4261
3930, 4223, 4224, 4263, 4262
3931, 4224, 4225, 4264, 4263
3932, 4225, 4226, 4265, 4264
3933, 4226, 4227, 4266, 4265
3934, 4227, 4228, 4267, 4266
3935, 4228, 4229, 4268, 4267
3936, 4229, 4230, 4269, 4268
3937, 4230, 4231, 4270, 4269
3938, 4231, 4232, 4271, 4270
3939, 4232, 4233, 4272, 4271
3940, 4233, 4234, 4273, 4272
3941, 4234, 4235, 4274, 4273
3942, 4235, 4236, 4275, 4274
3943, 4236, 4237, 4276, 4275
3944, 4237, 4238, 4277, 4276
3945, 4238, 4239, 4278, 4277
3946, 4239, 4240, 4279, 4278
3947, 4240, 4241, 4280, 4279
3948, 4241, 4242, 4281, 4280
3949, 4242, 4243, 4282, 4281
3950, 4243, 4244, 4283, 4282
3951, 4244, 4245, 4284, 4283
3952, 4245, 4246, 4285, 4284
3953, 4246, 4247, 4286, 4285
3954, 4247, 4248, 4287, 4286
3955, 4248, 4249, 4288, 4287
3956, 4249, 4250, 4289, 4288
3957, 4250, 4251, 4290, 4289
3958, 4251, 4252, 4291, 4290
3959, 4252, 4253, 4292, 4291
3960, 4253,  262,  263, 4292
3961,  339, 4254, 4293,  338
3962, 4254, 4255, 4294, 4293
3963, 4255, 4256, 4295, 4294
3964, 4256, 4257, 4296, 4295
3965, 4257, 4258, 4297, 4296
3966, 4258, 4259, 4298, 4297
3967, 4259, 4260, 4299, 4298
3968, 4260, 4261, 4300, 4299
3969, 4261, 4262, 4301, 4300
3970, 4262, 4263, 4302, 4301
3971, 4263, 4264, 4303, 4302
3972, 4264, 4265, 4304, 4303
3973, 4265, 4266, 4305, 4304
3974, 4266, 4267, 4306, 4305
3975, 4267, 4268, 4307, 4306
3976, 4268, 4269, 4308, 4307
3977, 4269, 4270, 4309, 4308
3978, 4270, 4271, 4310, 4309
3979, 4271, 4272, 4311, 4310
3980, 4272, 4273, 4312, 4311
3981, 4273, 4274, 4313, 4312
3982, 4274, 4275, 4314, 4313
3983, 4275, 4276, 4315, 4314
3984, 4276, 4277, 4316, 4315
3985, 4277, 4278, 4317, 4316
3986, 4278, 4279, 4318, 4317
3987, 4279, 4280, 4319, 4318
3988, 4280, 4281, 4320, 4319
3989, 4281, 4282, 4321, 4320
3990, 4282, 4283, 4322, 4321
3991, 4283, 4284, 4323, 4322
3992, 4284, 4285, 4324, 4323
3993, 4285, 4286, 4325, 4324
3994, 4286, 4287, 4326, 4325
3995, 4287, 4288, 4327, 4326
3996, 4288, 4289, 4328, 4327
3997, 4289, 4290, 4329, 4328
3998, 4290, 4291, 4330, 4329
3999, 4291, 4292, 4331, 4330
4000, 4292,  263,  264, 4331
4001,  338, 4293, 4332,  337
4002, 4293, 4294, 4333, 4332
4003, 4294, 4295, 4334, 4333
4004, 4295, 4296, 4335, 4334
4005, 4296, 4297, 4336, 4335
4006, 4297, 4298, 4337, 4336
4007, 4298, 4299, 4338, 4337
4008, 4299, 4300, 4339, 4338
4009, 4300, 4301, 4340, 4339
4010, 4301, 4302, 4341, 4340
4011, 4302, 4303, 4342, 4341
4012, 4303, 4304, 4343, 4342
4013, 4304, 4305, 4344, 4343
4014, 4305, 4306, 4345, 4344
4015, 4306, 4307, 4346, 4345
4016, 4307, 4308, 4347, 4346
4017, 4308, 4309, 4348, 4347
4018, 4309, 4310, 4349, 4348
4019, 4310, 4311, 4350, 4349
4020, 4311, 4312, 4351, 4350
4021, 4312, 4313, 4352, 4351
4022, 4313, 4314, 4353, 4352
4023, 4314, 4315, 4354, 4353
4024, 4315, 4316, 4355, 4354
4025, 4316, 4317, 4356, 4355
4026, 4317, 4318, 4357, 4356
4027, 4318, 4319, 4358, 4357
4028, 4319, 4320, 4359, 4358
4029, 4320, 4321, 4360, 4359
4030, 4321, 4322, 4361, 4360
4031, 4322, 4323, 4362, 4361
4032, 4323, 4324, 4363, 4362
4033, 4324, 4325, 4364, 4363
4034, 4325, 4326, 4365, 4364
4035, 4326, 4327, 4366, 4365
4036, 4327, 4328, 4367, 4366
4037, 4328, 4329, 4368, 4367
4038, 4329, 4330, 4369, 4368
4039, 4330, 4331, 4370, 4369
4040, 4331,  264,  265, 4370
4041,  337, 4332, 4371,  336
4042, 4332, 4333, 4372, 4371
4043, 4333, 4334, 4373, 4372
4044, 4334, 4335, 4374, 4373
4045, 4335, 4336, 4375, 4374
4046, 4336, 4337, 4376, 4375
4047, 4337, 4338, 4377, 4376
4048, 4338, 4339, 4378, 4377
4049, 4339, 4340, 4379, 4378
4050, 4340, 4341, 4380, 4379
4051, 4341, 4342, 4381, 4380
4052, 4342, 4343, 4382, 4381
4053, 4343, 4344, 4383, 4382
4054, 4344, 4345, 4384, 4383
4055, 4345, 4346, 4385, 4384
4056, 4346, 4347, 4386, 4385
4057, 4347, 4348, 4387, 4386
4058, 4348, 4349, 4388, 4387
4059, 4349, 4350, 4389, 4388
4060, 4350, 4351, 4390, 4389
4061, 4351, 4352, 4391, 4390
4062, 4352, 4353, 4392, 4391
4063, 4353, 4354, 4393, 4392
4064, 4354, 4355, 4394, 4393
4065, 4355, 4356, 4395, 4394
4066, 4356, 4357, 4396, 4395
4067, 4357, 4358, 4397, 4396
4068, 4358, 4359, 4398, 4397
4069, 4359, 4360, 4399, 4398
4070, 4360, 4361, 4400, 4399
4071, 4361, 4362, 4401, 4400
4072, 4362, 4363, 4402, 4401
4073, 4363, 4364, 4403, 4402
4074, 4364, 4365, 4404, 4403
4075, 4365, 4366, 4405, 4404
4076, 4366, 4367, 4406, 4405
4077, 4367, 4368, 4407, 4406
4078, 4368, 4369, 4408, 4407
4079, 4369, 4370, 4409, 4408
4080, 4370,  265,  266, 4409
4081,  336, 4371, 4410,  335
4082, 4371, 4372, 4411, 4410
4083, 4372, 4373, 4412, 4411
4084, 4373, 4374, 4413, 4412
4085, 4374, 4375, 4414, 4413
4086, 4375, 4376, 4415, 4414
4087, 4376, 4377, 4416, 4415
4088, 4377, 4378, 4417, 4416
4089, 4378, 4379, 4418, 4417
4090, 4379, 4380, 4419, 4418
4091, 4380, 4381, 4420, 4419
4092, 4381, 4382, 4421, 4420
4093, 4382, 4383, 4422, 4421
4094, 4383, 4384, 4423, 4422
4095, 4384, 4385, 4424, 4423
4096, 4385, 4386, 4425, 4424
4097, 4386, 4387, 4426, 4425
4098, 4387, 4388, 4427, 4426
4099, 4388, 4389, 4428, 4427
4100, 4389, 4390, 4429, 4428
4101, 4390, 4391, 4430, 4429
4102, 4391, 4392, 4431, 4430
4103, 4392, 4393, 4432, 4431
4104, 4393, 4394, 4433, 4432
4105, 4394, 4395, 4434, 4433
4106, 4395, 4396, 4435, 4434
4107, 4396, 4397, 4436, 4435
4108, 4397, 4398, 4437, 4436
4109, 4398, 4399, 4438, 4437
4110, 4399, 4400, 4439, 4438
4111, 4400, 4401, 4440, 4439
4112, 4401, 4402, 4441, 4440
4113, 4402, 4403, 4442, 4441
4114, 4403, 4404, 4443, 4442
4115, 4404, 4405, 4444, 4443
4116, 4405, 4406, 4445, 4444
4117, 4406, 4407, 4446, 4445
4118, 4407, 4408, 4447, 4446
4119, 4408, 4409, 4448, 4447
4120, 4409,  266,  267, 4448
4121,  335, 4410, 4449,  334
4122, 4410, 4411, 4450, 4449
4123, 4411, 4412, 4451, 4450
4124, 4412, 4413, 4452, 4451
4125, 4413, 4414, 4453, 4452
4126, 4414, 4415, 4454, 4453
4127, 4415, 4416, 4455, 4454
4128, 4416, 4417, 4456, 4455
4129, 4417, 4418, 4457, 4456
4130, 4418, 4419, 4458, 4457
4131, 4419, 4420, 4459, 4458
4132, 4420, 4421, 4460, 4459
4133, 4421, 4422, 4461, 4460
4134, 4422, 4423, 4462, 4461
4135, 4423, 4424, 4463, 4462
4136, 4424, 4425, 4464, 4463
4137, 4425, 4426, 4465, 4464
4138, 4426, 4427, 4466, 4465
4139, 4427, 4428, 4467, 4466
4140, 4428, 4429, 4468, 4467
4141, 4429, 4430, 4469, 4468
4142, 4430, 4431, 4470, 4469
4143, 4431, 4432, 4471, 4470
4144, 4432, 4433, 4472, 4471
4145, 4433, 4434, 4473, 4472
4146, 4434, 4435, 4474, 4473
4147, 4435, 4436, 4475, 4474
4148, 4436, 4437, 4476, 4475
4149, 4437, 4438, 4477, 4476
4150, 4438, 4439, 4478, 4477
4151, 4439, 4440, 4479, 4478
4152, 4440, 4441, 4480, 4479
4153, 4441, 4442, 4481, 4480
4154, 4442, 4443, 4482, 4481
4155, 4443, 4444, 4483, 4482
4156, 4444, 4445, 4484, 4483
4157, 4445, 4446, 4485, 4484
4158, 4446, 4447, 4486, 4485
4159, 4447, 4448, 4487, 4486
4160, 4448,  267,  268, 4487
4161,  334, 4449, 4488,  333
4162, 4449, 4450, 4489, 4488
4163, 4450, 4451, 4490, 4489
4164, 4451, 4452, 4491, 4490
4165, 4452, 4453, 4492, 4491
4166, 4453, 4454, 4493, 4492
4167, 4454, 4455, 4494, 4493
4168, 4455, 4456, 4495, 4494
4169, 4456, 4457, 4496, 4495
4170, 4457, 4458, 4497, 4496
4171, 4458, 4459, 4498, 4497
4172, 4459, 4460, 4499, 4498
4173, 4460, 4461, 4500, 4499
4174, 4461, 4462, 4501, 4500
4175, 4462, 4463, 4502, 4501
4176, 4463, 4464, 4503, 4502
4177, 4464, 4465, 4504, 4503
4178, 4465, 4466, 4505, 4504
4179, 4466, 4467, 4506, 4505
4180, 4467, 4468, 4507, 4506
4181, 4468, 4469, 4508, 4507
4182, 4469, 4470, 4509, 4508
4183, 4470, 4471, 4510, 4509
4184, 4471, 4472, 4511, 4510
4185, 4472, 4473, 4512, 4511
4186, 4473, 4474, 4513, 4512
4187, 4474, 4475, 4514, 4513
4188, 4475, 4476, 4515, 4514
4189, 4476, 4477, 4516, 4515
4190, 4477, 4478, 4517, 4516
4191, 4478, 4479, 4518, 4517
4192, 4479, 4480, 4519, 4518
4193, 4480, 4481, 4520, 4519
4194, 4481, 4482, 4521, 4520
4195, 4482, 4483, 4522, 4521
4196, 4483, 4484, 4523, 4522
4197, 4484, 4485, 4524, 4523
4198, 4485, 4486, 4525, 4524
4199, 4486, 4487, 4526, 4525
4200, 4487,  268,  269, 4526
4201,  333, 4488, 4527,  332
4202, 4488, 4489, 4528, 4527
4203, 4489, 4490, 4529, 4528
4204, 4490, 4491, 4530, 4529
4205, 4491, 4492, 4531, 4530
4206, 4492, 4493, 4532, 4531
4207, 4493, 4494, 4533, 4532
4208, 4494, 4495, 4534, 4533
4209, 4495, 4496, 4535, 4534
4210, 4496, 4497, 4536, 4535
4211, 4497, 4498, 4537, 4536
4212, 4498, 4499, 4538, 4537
4213, 4499, 4500, 4539, 4538
4214, 4500, 4501, 4540, 4539
4215, 4501, 4502, 4541, 4540
4216, 4502, 4503, 4542, 4541
4217, 4503, 4504, 4543, 4542
4218, 4504, 4505, 4544, 4543
4219, 4505, 4506, 4545, 4544
4220, 4506, 4507, 4546, 4545
4221, 4507, 4508, 4547, 4546
4222, 4508, 4509, 4548, 4547
4223, 4509, 4510, 4549, 4548
4224, 4510, 4511, 4550, 4549
4225, 4511, 4512, 4551, 4550
4226, 4512, 4513, 4552, 4551
4227, 4513, 4514, 4553, 4552
4228, 4514, 4515, 4554, 4553
4229, 4515, 4516, 4555, 4554
4230, 4516, 4517, 4556, 4555
4231, 4517, 4518, 4557, 4556
4232, 4518, 4519, 4558, 4557
4233, 4519, 4520, 4559, 4558
4234, 4520, 4521, 4560, 4559
4235, 4521, 4522, 4561, 4560
4236, 4522, 4523, 4562, 4561
4237, 4523, 4524, 4563, 4562
4238, 4524, 4525, 4564, 4563
4239, 4525, 4526, 4565, 4564
4240, 4526,  269,  270, 4565
4241,  332, 4527, 4566,  331
4242, 4527, 4528, 4567, 4566
4243, 4528, 4529, 4568, 4567
4244, 4529, 4530, 4569, 4568
4245, 4530, 4531, 4570, 4569
4246, 4531, 4532, 4571, 4570
4247, 4532, 4533, 4572, 4571
4248, 4533, 4534, 4573, 4572
4249, 4534, 4535, 4574, 4573
4250, 4535, 4536, 4575, 4574
4251, 4536, 4537, 4576, 4575
4252, 4537, 4538, 4577, 4576
4253, 4538, 4539, 4578, 4577
4254, 4539, 4540, 4579, 4578
4255, 4540, 4541, 4580, 4579
4256, 4541, 4542, 4581, 4580
4257, 4542, 4543, 4582, 4581
4258, 4543, 4544, 4583, 4582
4259, 4544, 4545, 4584, 4583
4260, 4545, 4546, 4585, 4584
4261, 4546, 4547, 4586, 4585
4262, 4547, 4548, 4587, 4586
4263, 4548, 4549, 4588, 4587
4264, 4549, 4550, 4589, 4588
4265, 4550, 4551, 4590, 4589
4266, 4551, 4552, 4591, 4590
4267, 4552, 4553, 4592, 4591
4268, 4553, 4554, 4593, 4592
4269, 4554, 4555, 4594, 4593
4270, 4555, 4556, 4595, 4594
4271, 4556, 4557, 4596, 4595
4272, 4557, 4558, 4597, 4596
4273, 4558, 4559, 4598, 4597
4274, 4559, 4560, 4599, 4598
4275, 4560, 4561, 4600, 4599
4276, 4561, 4562, 4601, 4600
4277, 4562, 4563, 4602, 4601
4278, 4563, 4564, 4603, 4602
4279, 4564, 4565, 4604, 4603
4280, 4565,  270,  271, 4604
4281,  331, 4566, 4605,  330
4282, 4566, 4567, 4606, 4605
4283, 4567, 4568, 4607, 4606
4284, 4568, 4569, 4608, 4607
4285, 4569, 4570, 4609, 4608
4286, 4570, 4571, 4610, 4609
4287, 4571, 4572, 4611, 4610
4288, 4572, 4573, 4612, 4611
4289, 4573, 4574, 4613, 4612
4290, 4574, 4575, 4614, 4613
4291, 4575, 4576, 4615, 4614
4292, 4576, 4577, 4616, 4615
4293, 4577, 4578, 4617, 4616
4294, 4578, 4579, 4618, 4617
4295, 4579, 4580, 4619, 4618
4296, 4580, 4581, 4620, 4619
4297, 4581, 4582, 4621, 4620
4298, 4582, 4583, 4622, 4621
4299, 4583, 4584, 4623, 4622
4300, 4584, 4585, 4624, 4623
4301, 4585, 4586, 4625, 4624
4302, 4586, 4587, 4626, 4625
4303, 4587, 4588, 4627, 4626
4304, 4588, 4589, 4628, 4627
4305, 4589, 4590, 4629, 4628
4306, 4590, 4591, 4630, 4629
4307, 4591, 4592, 4631, 4630
4308, 4592, 4593, 4632, 4631
4309, 4593, 4594, 4633, 4632
4310, 4594, 4595, 4634, 4633
4311, 4595, 4596, 4635, 4634
4312, 4596, 4597, 4636, 4635
4313, 4597, 4598, 4637, 4636
4314, 4598, 4599, 4638, 4637
4315, 4599, 4600, 4639, 4638
4316, 4600, 4601, 4640, 4639
4317, 4601, 4602, 4641, 4640
4318, 4602, 4603, 4642, 4641
4319, 4603, 4604, 4643, 4642
4320, 4604,  271,  272, 4643
4321,  330, 4605, 4644,  329
4322, 4605, 4606, 4645, 4644
4323, 4606, 4607, 4646, 4645
4324, 4607, 4608, 4647, 4646
4325, 4608, 4609, 4648, 4647
4326, 4609, 4610, 4649, 4648
4327, 4610, 4611, 4650, 4649
4328, 4611, 4612, 4651, 4650
4329, 4612, 4613, 4652, 4651
4330, 4613, 4614, 4653, 4652
4331, 4614, 4615, 4654, 4653
4332, 4615, 4616, 4655, 4654
4333, 4616, 4617, 4656, 4655
4334, 4617, 4618, 4657, 4656
4335, 4618, 4619, 4658, 4657
4336, 4619, 4620, 4659, 4658
4337, 4620, 4621, 4660, 4659
4338, 4621, 4622, 4661, 4660
4339, 4622, 4623, 4662, 4661
4340, 4623, 4624, 4663, 4662
4341, 4624, 4625, 4664, 4663
4342, 4625, 4626, 4665, 4664
4343, 4626, 4627, 4666, 4665
4344, 4627, 4628, 4667, 4666
4345, 4628, 4629, 4668, 4667
4346, 4629, 4630, 4669, 4668
4347, 4630, 4631, 4670, 4669
4348, 4631, 4632, 4671, 4670
4349, 4632, 4633, 4672, 4671
4350, 4633, 4634, 4673, 4672
4351, 4634, 4635, 4674, 4673
4352, 4635, 4636, 4675, 4674
4353, 4636, 4637, 4676, 4675
4354, 4637, 4638, 4677, 4676
4355, 4638, 4639, 4678, 4677
4356, 4639, 4640, 4679, 4678
4357, 4640, 4641, 4680, 4679
4358, 4641, 4642, 4681, 4680
4359, 4642, 4643, 4682, 4681
4360, 4643,  272,  273, 4682
4361,  329, 4644, 4683,  328
4362, 4644, 4645, 4684, 4683
4363, 4645, 4646, 4685, 4684
4364, 4646, 4647, 4686, 4685
4365, 4647, 4648, 4687, 4686
4366, 4648, 4649, 4688, 4687
4367, 4649, 4650, 4689, 4688
4368, 4650, 4651, 4690, 4689
4369, 4651, 4652, 4691, 4690
4370, 4652, 4653, 4692, 4691
4371, 4653, 4654, 4693, 4692
4372, 4654, 4655, 4694, 4693
4373, 4655, 4656, 4695, 4694
4374, 4656, 4657, 4696, 4695
4375, 4657, 4658, 4697, 4696
4376, 4658, 4659, 4698, 4697
4377, 4659, 4660, 4699, 4698
4378, 4660, 4661, 4700, 4699
4379, 4661, 4662, 4701, 4700
4380, 4662, 4663, 4702, 4701
4381, 4663, 4664, 4703, 4702
4382, 4664, 4665, 4704, 4703
4383, 4665, 4666, 4705, 4704
4384, 4666, 4667, 4706, 4705
4385, 4667, 4668, 4707, 4706
4386, 4668, 4669, 4708, 4707
4387, 4669, 4670, 4709, 4708
4388, 4670, 4671, 4710, 4709
4389, 4671, 4672, 4711, 4710
4390, 4672, 4673, 4712, 4711
4391, 4673, 4674, 4713, 4712
4392, 4674, 4675, 4714, 4713
4393, 4675, 4676, 4715, 4714
4394, 4676, 4677, 4716, 4715
4395, 4677, 4678, 4717, 4716
4396, 4678, 4679, 4718, 4717
4397, 4679, 4680, 4719, 4718
4398, 4680, 4681, 4720, 4719
4399, 4681, 4682, 4721, 4720
4400, 4682,  273,  274, 4721
4401,  328, 4683, 4722,  327
4402, 4683, 4684, 4723, 4722
4403, 4684, 4685, 4724, 4723
4404, 4685, 4686, 4725, 4724
4405, 4686, 4687, 4726, 4725
4406, 4687, 4688, 4727, 4726
4407, 4688, 4689, 4728, 4727
4408, 4689, 4690, 4729, 4728
4409, 4690, 4691, 4730, 4729
4410, 4691, 4692, 4731, 4730
4411, 4692, 4693, 4732, 4731
4412, 4693, 4694, 4733, 4732
4413, 4694, 4695, 4734, 4733
4414, 4695, 4696, 4735, 4734
4415, 4696, 4697, 4736, 4735
4416, 4697, 4698, 4737, 4736
4417, 4698, 4699, 4738, 4737
4418, 4699, 4700, 4739, 4738
4419, 4700, 4701, 4740, 4739
4420, 4701, 4702, 4741, 4740
4421, 4702, 4703, 4742, 4741
4422, 4703, 4704, 4743, 4742
4423, 4704, 4705, 4744, 4743
4424, 4705, 4706, 4745, 4744
4425, 4706, 4707, 4746, 4745
4426, 4707, 4708, 4747, 4746
4427, 4708, 4709, 4748, 4747
4428, 4709, 4710, 4749, 4748
4429, 4710, 4711, 4750, 4749
4430, 4711, 4712, 4751, 4750
4431, 4712, 4713, 4752, 4751
4432, 4713, 4714, 4753, 4752
4433, 4714, 4715, 4754, 4753
4434, 4715, 4716, 4755, 4754
4435, 4716, 4717, 4756, 4755
4436, 4717, 4718, 4757, 4756
4437, 4718, 4719, 4758, 4757
4438, 4719, 4720, 4759, 4758
4439, 4720, 4721, 4760, 4759
4440, 4721,  274,  275, 4760
4441,  327, 4722, 4761,  326
4442, 4722, 4723, 4762, 4761
4443, 4723, 4724, 4763, 4762
4444, 4724, 4725, 4764, 4763
4445, 4725, 4726, 4765, 4764
4446, 4726, 4727, 4766, 4765
4447, 4727, 4728, 4767, 4766
4448, 4728, 4729, 4768, 4767
4449, 4729, 4730, 4769, 4768
4450, 4730, 4731, 4770, 4769
4451, 4731, 4732, 4771, 4770
4452, 4732, 4733, 4772, 4771
4453, 4733, 4734, 4773, 4772
4454, 4734, 4735, 4774, 4773
4455, 4735, 4736, 4775, 4774
4456, 4736, 4737, 4776, 4775
4457, 4737, 4738, 4777, 4776
4458, 4738, 4739, 4778, 4777
4459, 4739, 4740, 4779, 4778
4460, 4740, 4741, 4780, 4779
4461, 4741, 4742, 4781, 4780
4462, 4742, 4743, 4782, 4781
4463, 4743, 4744, 4783, 4782
4464, 4744, 4745, 4784, 4783
4465, 4745, 4746, 4785, 4784
4466, 4746, 4747, 4786, 4785
4467, 4747, 4748, 4787, 4786
4468, 4748, 4749, 4788, 4787
4469, 4749, 4750, 4789, 4788
4470, 4750, 4751, 4790, 4789
4471, 4751, 4752, 4791, 4790
4472, 4752, 4753, 4792, 4791
4473, 4753, 4754, 4793, 4792
4474, 4754, 4755, 4794, 4793
4475, 4755, 4756, 4795, 4794
4476, 4756, 4757, 4796, 4795
4477, 4757, 4758, 4797, 4796
4478, 4758, 4759, 4798, 4797
4479, 4759, 4760, 4799, 4798
4480, 4760,  275,  276, 4799
4481,  326, 4761, 4800,  325
4482, 4761, 4762, 4801, 4800
4483, 4762, 4763, 4802, 4801
4484, 4763, 4764, 4803, 4802
4485, 4764, 4765, 4804, 4803
4486, 4765, 4766, 4805, 4804
4487, 4766, 4767, 4806, 4805
4488, 4767, 4768, 4807, 4806
4489, 4768, 4769, 4808, 4807
4490, 4769, 4770, 4809, 4808
4491, 4770, 4771, 4810, 4809
4492, 4771, 4772, 4811, 4810
4493, 4772, 4773, 4812, 4811
4494, 4773, 4774, 4813, 4812
4495, 4774, 4775, 4814, 4813
4496, 4775, 4776, 4815, 4814
4497, 4776, 4777, 4816, 4815
4498, 4777, 4778, 4817, 4816
4499, 4778, 4779, 4818, 4817
4500, 4779, 4780, 4819, 4818
4501, 4780, 4781, 4820, 4819
4502, 4781, 4782, 4821, 4820
4503, 4782, 4783, 4822, 4821
4504, 4783, 4784, 4823, 4822
4505, 4784, 4785, 4824, 4823
4506, 4785, 4786, 4825, 4824
4507, 4786, 4787, 4826, 4825
4508, 4787, 4788, 4827, 4826
4509, 4788, 4789, 4828, 4827
4510, 4789, 4790, 4829, 4828
4511, 4790, 4791, 4830, 4829
4512, 4791, 4792, 4831, 4830
4513, 4792, 4793, 4832, 4831
4514, 4793, 4794, 4833, 4832
4515, 4794, 4795, 4834, 4833
4516, 4795, 4796, 4835, 4834
4517, 4796, 4797, 4836, 4835
4518, 4797, 4798, 4837, 4836
4519, 4798, 4799, 4838, 4837
4520, 4799,  276,  277, 4838
4521,  325, 4800, 4839,  324
4522, 4800, 4801, 4840, 4839
4523, 4801, 4802, 4841, 4840
4524, 4802, 4803, 4842, 4841
4525, 4803, 4804, 4843, 4842
4526, 4804, 4805, 4844, 4843
4527, 4805, 4806, 4845, 4844
4528, 4806, 4807, 4846, 4845
4529, 4807, 4808, 4847, 4846
4530, 4808, 4809, 4848, 4847
4531, 4809, 4810, 4849, 4848
4532, 4810, 4811, 4850, 4849
4533, 4811, 4812, 4851, 4850
4534, 4812, 4813, 4852, 4851
4535, 4813, 4814, 4853, 4852
4536, 4814, 4815, 4854, 4853
4537, 4815, 4816, 4855, 4854
4538, 4816, 4817, 4856, 4855
4539, 4817, 4818, 4857, 4856
4540, 4818, 4819, 4858, 4857
4541, 4819, 4820, 4859, 4858
4542, 4820, 4821, 4860, 4859
4543, 4821, 4822, 4861, 4860
4544, 4822, 4823, 4862, 4861
4545, 4823, 4824, 4863, 4862
4546, 4824, 4825, 4864, 4863
4547, 4825, 4826, 4865, 4864
4548, 4826, 4827, 4866, 4865
4549, 4827, 4828, 4867, 4866
4550, 4828, 4829, 4868, 4867
4551, 4829, 4830, 4869, 4868
4552, 4830, 4831, 4870, 4869
4553, 4831, 4832, 4871, 4870
4554, 4832, 4833, 4872, 4871
4555, 4833, 4834, 4873, 4872
4556, 4834, 4835, 4874, 4873
4557, 4835, 4836, 4875, 4874
4558, 4836, 4837, 4876, 4875
4559, 4837, 4838, 4877, 4876
4560, 4838,  277,  278, 4877
4561,  324, 4839, 4878,  323
4562, 4839, 4840, 4879, 4878
4563, 4840, 4841, 4880, 4879
4564, 4841, 4842, 4881, 4880
4565, 4842, 4843, 4882, 4881
4566, 4843, 4844, 4883, 4882
4567, 4844, 4845, 4884, 4883
4568, 4845, 4846, 4885, 4884
4569, 4846, 4847, 4886, 4885
4570, 4847, 4848, 4887, 4886
4571, 4848, 4849, 4888, 4887
4572, 4849, 4850, 4889, 4888
4573, 4850, 4851, 4890, 4889
4574, 4851, 4852, 4891, 4890
4575, 4852, 4853, 4892, 4891
4576, 4853, 4854, 4893, 4892
4577, 4854, 4855, 4894, 4893
4578, 4855, 4856, 4895, 4894
4579, 4856, 4857, 4896, 4895
4580, 4857, 4858, 4897, 4896
4581, 4858, 4859, 4898, 4897
4582, 4859, 4860, 4899, 4898
4583, 4860, 4861, 4900, 4899
4584, 4861, 4862, 4901, 4900
4585, 4862, 4863, 4902, 4901
4586, 4863, 4864, 4903, 4902
4587, 4864, 4865, 4904, 4903
4588, 4865, 4866, 4905, 4904
4589, 4866, 4867, 4906, 4905
4590, 4867, 4868, 4907, 4906
4591, 4868, 4869, 4908, 4907
4592, 4869, 4870, 4909, 4908
4593, 4870, 4871, 4910, 4909
4594, 4871, 4872, 4911, 4910
4595, 4872, 4873, 4912, 4911
4596, 4873, 4874, 4913, 4912
4597, 4874, 4875, 4914, 4913
4598, 4875, 4876, 4915, 4914
4599, 4876, 4877, 4916, 4915
4600, 4877,  278,  279, 4916
4601,  323, 4878, 4917,  322
4602, 4878, 4879, 4918, 4917
4603, 4879, 4880, 4919, 4918
4604, 4880, 4881, 4920, 4919
4605, 4881, 4882, 4921, 4920
4606, 4882, 4883, 4922, 4921
4607, 4883, 4884, 4923, 4922
4608, 4884, 4885, 4924, 4923
4609, 4885, 4886, 4925, 4924
4610, 4886, 4887, 4926, 4925
4611, 4887, 4888, 4927, 4926
4612, 4888, 4889, 4928, 4927
4613, 4889, 4890, 4929, 4928
4614, 4890, 4891, 4930, 4929
4615, 4891, 4892, 4931, 4930
4616, 4892, 4893, 4932, 4931
4617, 4893, 4894, 4933, 4932
4618, 4894, 4895, 4934, 4933
4619, 4895, 4896, 4935, 4934
4620, 4896, 4897, 4936, 4935
4621, 4897, 4898, 4937, 4936
4622, 4898, 4899, 4938, 4937
4623, 4899, 4900, 4939, 4938
4624, 4900, 4901, 4940, 4939
4625, 4901, 4902, 4941, 4940
4626, 4902, 4903, 4942, 4941
4627, 4903, 4904, 4943, 4942
4628, 4904, 4905, 4944, 4943
4629, 4905, 4906, 4945, 4944
4630, 4906, 4907, 4946, 4945
4631, 4907, 4908, 4947, 4946
4632, 4908, 4909, 4948, 4947
4633, 4909, 4910, 4949, 4948
4634, 4910, 4911, 4950, 4949
4635, 4911, 4912, 4951, 4950
4636, 4912, 4913, 4952, 4951
4637, 4913, 4914, 4953, 4952
4638, 4914, 4915, 4954, 4953
4639, 4915, 4916, 4955, 4954
4640, 4916,  279,  280, 4955
4641,  322, 4917, 4956,  321
4642, 4917, 4918, 4957, 4956
4643, 4918, 4919, 4958, 4957
4644, 4919, 4920, 4959, 4958
4645, 4920, 4921, 4960, 4959
4646, 4921, 4922, 4961, 4960
4647, 4922, 4923, 4962, 4961
4648, 4923, 4924, 4963, 4962
4649, 4924, 4925, 4964, 4963
4650, 4925, 4926, 4965, 4964
4651, 4926, 4927, 4966, 4965
4652, 4927, 4928, 4967, 4966
4653, 4928, 4929, 4968, 4967
4654, 4929, 4930, 4969, 4968
4655, 4930, 4931, 4970, 4969
4656, 4931, 4932, 4971, 4970
4657, 4932, 4933, 4972, 4971
4658, 4933, 4934, 4973, 4972
4659, 4934, 4935, 4974, 4973
4660, 4935, 4936, 4975, 4974
4661, 4936, 4937, 4976, 4975
4662, 4937, 4938, 4977, 4976
4663, 4938, 4939, 4978, 4977
4664, 4939, 4940, 4979, 4978
4665, 4940, 4941, 4980, 4979
4666, 4941, 4942, 4981, 4980
4667, 4942, 4943, 4982, 4981
4668, 4943, 4944, 4983, 4982
4669, 4944, 4945, 4984, 4983
4670, 4945, 4946, 4985, 4984
4671, 4946, 4947, 4986, 4985
4672, 4947, 4948, 4987, 4986
4673, 4948, 4949, 4988, 4987
4674, 4949, 4950, 4989, 4988
4675, 4950, 4951, 4990, 4989
4676, 4951, 4952, 4991, 4990
4677, 4952, 4953, 4992, 4991
4678, 4953, 4954, 4993, 4992
4679, 4954, 4955, 4994, 4993
4680, 4955,  280,  281, 4994
4681,  321, 4956,  320,    6
4682, 4956, 4957,  319,  320
4683, 4957, 4958,  318,  319
4684, 4958, 4959,  317,  318
4685, 4959, 4960,  316,  317
4686, 4960, 4961,  315,  316
4687, 4961, 4962,  314,  315
4688, 4962, 4963,  313,  314
4689, 4963, 4964,  312,  313
4690, 4964, 4965,  311,  312
4691, 4965, 4966,  310,  311
4692, 4966, 4967,  309,  310
4693, 4967, 4968,  308,  309
4694, 4968, 4969,  307,  308
4695, 4969, 4970,  306,  307
4696, 4970, 4971,  305,  306
4697, 4971, 4972,  304,  305
4698, 4972, 4973,  303,  304
4699, 4973, 4974,  302,  303
4700, 4974, 4975,  301,  302
4701, 4975, 4976,  300,  301
4702, 4976, 4977,  299,  300
4703, 4977, 4978,  298,  299
4704, 4978, 4979,  297,  298
4705, 4979, 4980,  296,  297
4706, 4980, 4981,  295,  296
4707, 4981, 4982,  294,  295
4708, 4982, 4983,  293,  294
4709, 4983, 4984,  292,  293
4710, 4984, 4985,  291,  292
4711, 4985, 4986,  290,  291
4712, 4986, 4987,  289,  290
4713, 4987, 4988,  288,  289
4714, 4988, 4989,  287,  288
4715, 4989, 4990,  286,  287
4716, 4990, 4991,  285,  286
4717, 4991, 4992,  284,  285
4718, 4992, 4993,  283,  284
4719, 4993, 4994,  282,  283
4720, 4994,  281,    5,  282
4721,    2,   47, 4995,  470
4722,   47,   46, 4996, 4995
4723,   46,   45, 4997, 4996
4724,   45,   44, 4998, 4997
4725,   44,   43, 4999, 4998
4726,   43,   42, 5000, 4999
4727,   42,   41, 5001, 5000
4728,   41,   40, 5002, 5001
4729,   40,   39, 5003, 5002
4730,   39,   38, 5004, 5003
4731,   38,   37, 5005, 5004
4732,   37,   36, 5006, 5005
4733,   36,   35, 5007, 5006
4734,   35,   34, 5008, 5007
4735,   34,   33, 5009, 5008
4736,   33,   32, 5010, 5009
4737,   32,   31, 5011, 5010
4738,   31,   30, 5012, 5011
4739,   30,   29, 5013, 5012
4740,   29,   28, 5014, 5013
4741,   28,   27, 5015, 5014
4742,   27,   26, 5016, 5015
4743,   26,   25, 5017, 5016
4744,   25,   24, 5018, 5017
4745,   24,   23, 5019, 5018
4746,   23,   22, 5020, 5019
4747,   22,   21, 5021, 5020
4748,   21,   20, 5022, 5021
4749,   20,   19, 5023, 5022
4750,   19,   18, 5024, 5023
4751,   18,   17, 5025, 5024
4752,   17,   16, 5026, 5025
4753,   16,   15, 5027, 5026
4754,   15,   14, 5028, 5027
4755,   14,   13, 5029, 5028
4756,   13,   12, 5030, 5029
4757,   12,   11, 5031, 5030
4758,   11,   10, 5032, 5031
4759,   10,    9, 5033, 5032
4760,    9,    1,  358, 5033
4761,  470, 4995, 5034,  469
4762, 4995, 4996, 5035, 5034
4763, 4996, 4997, 5036, 5035
4764, 4997, 4998, 5037, 5036
4765, 4998, 4999, 5038, 5037
4766, 4999, 5000, 5039, 5038
4767, 5000, 5001, 5040, 5039
4768, 5001, 5002, 5041, 5040
4769, 5002, 5003, 5042, 5041
4770, 5003, 5004, 5043, 5042
4771, 5004, 5005, 5044, 5043
4772, 5005, 5006, 5045, 5044
4773, 5006, 5007, 5046, 5045
4774, 5007, 5008, 5047, 5046
4775, 5008, 5009, 5048, 5047
4776, 5009, 5010, 5049, 5048
4777, 5010, 5011, 5050, 5049
4778, 5011, 5012, 5051, 5050
4779, 5012, 5013, 5052, 5051
4780, 5013, 5014, 5053, 5052
4781, 5014, 5015, 5054, 5053
4782, 5015, 5016, 5055, 5054
4783, 5016, 5017, 5056, 5055
4784, 5017, 5018, 5057, 5056
4785, 5018, 5019, 5058, 5057
4786, 5019, 5020, 5059, 5058
4787, 5020, 5021, 5060, 5059
4788, 5021, 5022, 5061, 5060
4789, 5022, 5023, 5062, 5061
4790, 5023, 5024, 5063, 5062
4791, 5024, 5025, 5064, 5063
4792, 5025, 5026, 5065, 5064
4793, 5026, 5027, 5066, 5065
4794, 5027, 5028, 5067, 5066
4795, 5028, 5029, 5068, 5067
4796, 5029, 5030, 5069, 5068
4797, 5030, 5031, 5070, 5069
4798, 5031, 5032, 5071, 5070
4799, 5032, 5033, 5072, 5071
4800, 5033,  358,  359, 5072
4801,  469, 5034, 5073,  468
4802, 5034, 5035, 5074, 5073
4803, 5035, 5036, 5075, 5074
4804, 5036, 5037, 5076, 5075
4805, 5037, 5038, 5077, 5076
4806, 5038, 5039, 5078, 5077
4807, 5039, 5040, 5079, 5078
4808, 5040, 5041, 5080, 5079
4809, 5041, 5042, 5081, 5080
4810, 5042, 5043, 5082, 5081
4811, 5043, 5044, 5083, 5082
4812, 5044, 5045, 5084, 5083
4813, 5045, 5046, 5085, 5084
4814, 5046, 5047, 5086, 5085
4815, 5047, 5048, 5087, 5086
4816, 5048, 5049, 5088, 5087
4817, 5049, 5050, 5089, 5088
4818, 5050, 5051, 5090, 5089
4819, 5051, 5052, 5091, 5090
4820, 5052, 5053, 5092, 5091
4821, 5053, 5054, 5093, 5092
4822, 5054, 5055, 5094, 5093
4823, 5055, 5056, 5095, 5094
4824, 5056, 5057, 5096, 5095
4825, 5057, 5058, 5097, 5096
4826, 5058, 5059, 5098, 5097
4827, 5059, 5060, 5099, 5098
4828, 5060, 5061, 5100, 5099
4829, 5061, 5062, 5101, 5100
4830, 5062, 5063, 5102, 5101
4831, 5063, 5064, 5103, 5102
4832, 5064, 5065, 5104, 5103
4833, 5065, 5066, 5105, 5104
4834, 5066, 5067, 5106, 5105
4835, 5067, 5068, 5107, 5106
4836, 5068, 5069, 5108, 5107
4837, 5069, 5070, 5109, 5108
4838, 5070, 5071, 5110, 5109
4839, 5071, 5072, 5111, 5110
4840, 5072,  359,  360, 5111
4841,  468, 5073, 5112,  467
4842, 5073, 5074, 5113, 5112
4843, 5074, 5075, 5114, 5113
4844, 5075, 5076, 5115, 5114
4845, 5076, 5077, 5116, 5115
4846, 5077, 5078, 5117, 5116
4847, 5078, 5079, 5118, 5117
4848, 5079, 5080, 5119, 5118
4849, 5080, 5081, 5120, 5119
4850, 5081, 5082, 5121, 5120
4851, 5082, 5083, 5122, 5121
4852, 5083, 5084, 5123, 5122
4853, 5084, 5085, 5124, 5123
4854, 5085, 5086, 5125, 5124
4855, 5086, 5087, 5126, 5125
4856, 5087, 5088, 5127, 5126
4857, 5088, 5089, 5128, 5127
4858, 5089, 5090, 5129, 5128
4859, 5090, 5091, 5130, 5129
4860, 5091, 5092, 5131, 5130
4861, 5092, 5093, 5132, 5131
4862, 5093, 5094, 5133, 5132
4863, 5094, 5095, 5134, 5133
4864, 5095, 5096, 5135, 5134
4865, 5096, 5097, 5136, 5135
4866, 5097, 5098, 5137, 5136
4867, 5098, 5099, 5138, 5137
4868, 5099, 5100, 5139, 5138
4869, 5100, 5101, 5140, 5139
4870, 5101, 5102, 5141, 5140
4871, 5102, 5103, 5142, 5141
4872, 5103, 5104, 5143, 5142
4873, 5104, 5105, 5144, 5143
4874, 5105, 5106, 5145, 5144
4875, 5106, 5107, 5146, 5145
4876, 5107, 5108, 5147, 5146
4877, 5108, 5109, 5148, 5147
4878, 5109, 5110, 5149, 5148
4879, 5110, 5111, 5150, 5149
4880, 5111,  360,  361, 5150
4881,  467, 5112, 5151,  466
4882, 5112, 5113, 5152, 5151
4883, 5113, 5114, 5153, 5152
4884, 5114, 5115, 5154, 5153
4885, 5115, 5116, 5155, 5154
4886, 5116, 5117, 5156, 5155
4887, 5117, 5118, 5157, 5156
4888, 5118, 5119, 5158, 5157
4889, 5119, 5120, 5159, 5158
4890, 5120, 5121, 5160, 5159
4891, 5121, 5122, 5161, 5160
4892, 5122, 5123, 5162, 5161
4893, 5123, 5124, 5163, 5162
4894, 5124, 5125, 5164, 5163
4895, 5125, 5126, 5165, 5164
4896, 5126, 5127, 5166, 5165
4897, 5127, 5128, 5167, 5166
4898, 5128, 5129, 5168, 5167
4899, 5129, 5130, 5169, 5168
4900, 5130, 5131, 5170, 5169
4901, 5131, 5132, 5171, 5170
4902, 5132, 5133, 5172, 5171
4903, 5133, 5134, 5173, 5172
4904, 5134, 5135, 5174, 5173
4905, 5135, 5136, 5175, 5174
4906, 5136, 5137, 5176, 5175
4907, 5137, 5138, 5177, 5176
4908, 5138, 5139, 5178, 5177
4909, 5139, 5140, 5179, 5178
4910, 5140, 5141, 5180, 5179
4911, 5141, 5142, 5181, 5180
4912, 5142, 5143, 5182, 5181
4913, 5143, 5144, 5183, 5182
4914, 5144, 5145, 5184, 5183
4915, 5145, 5146, 5185, 5184
4916, 5146, 5147, 5186, 5185
4917, 5147, 5148, 5187, 5186
4918, 5148, 5149, 5188, 5187
4919, 5149, 5150, 5189, 5188
4920, 5150,  361,  362, 5189
4921,  466, 5151, 5190,  465
4922, 5151, 5152, 5191, 5190
4923, 5152, 5153, 5192, 5191
4924, 5153, 5154, 5193, 5192
4925, 5154, 5155, 5194, 5193
4926, 5155, 5156, 5195, 5194
4927, 5156, 5157, 5196, 5195
4928, 5157, 5158, 5197, 5196
4929, 5158, 5159, 5198, 5197
4930, 5159, 5160, 5199, 5198
4931, 5160, 5161, 5200, 5199
4932, 5161, 5162, 5201, 5200
4933, 5162, 5163, 5202, 5201
4934, 5163, 5164, 5203, 5202
4935, 5164, 5165, 5204, 5203
4936, 5165, 5166, 5205, 5204
4937, 5166, 5167, 5206, 5205
4938, 5167, 5168, 5207, 5206
4939, 5168, 5169, 5208, 5207
4940, 5169, 5170, 5209, 5208
4941, 5170, 5171, 5210, 5209
4942, 5171, 5172, 5211, 5210
4943, 5172, 5173, 5212, 5211
4944, 5173, 5174, 5213, 5212
4945, 5174, 5175, 5214, 5213
4946, 5175, 5176, 5215, 5214
4947, 5176, 5177, 5216, 5215
4948, 5177, 5178, 5217, 5216
4949, 5178, 5179, 5218, 5217
4950, 5179, 5180, 5219, 5218
4951, 5180, 5181, 5220, 5219
4952, 5181, 5182, 5221, 5220
4953, 5182, 5183, 5222, 5221
4954, 5183, 5184, 5223, 5222
4955, 5184, 5185, 5224, 5223
4956, 5185, 5186, 5225, 5224
4957, 5186, 5187, 5226, 5225
4958, 5187, 5188, 5227, 5226
4959, 5188, 5189, 5228, 5227
4960, 5189,  362,  363, 5228
4961,  465, 5190, 5229,  464
4962, 5190, 5191, 5230, 5229
4963, 5191, 5192, 5231, 5230
4964, 5192, 5193, 5232, 5231
4965, 5193, 5194, 5233, 5232
4966, 5194, 5195, 5234, 5233
4967, 5195, 5196, 5235, 5234
4968, 5196, 5197, 5236, 5235
4969, 5197, 5198, 5237, 5236
4970, 5198, 5199, 5238, 5237
4971, 5199, 5200, 5239, 5238
4972, 5200, 5201, 5240, 5239
4973, 5201, 5202, 5241, 5240
4974, 5202, 5203, 5242, 5241
4975, 5203, 5204, 5243, 5242
4976, 5204, 5205, 5244, 5243
4977, 5205, 5206, 5245, 5244
4978, 5206, 5207, 5246, 5245
4979, 5207, 5208, 5247, 5246
4980, 5208, 5209, 5248, 5247
4981, 5209, 5210, 5249, 5248
4982, 5210, 5211, 5250, 5249
4983, 5211, 5212, 5251, 5250
4984, 5212, 5213, 5252, 5251
4985, 5213, 5214, 5253, 5252
4986, 5214, 5215, 5254, 5253
4987, 5215, 5216, 5255, 5254
4988, 5216, 5217, 5256, 5255
4989, 5217, 5218, 5257, 5256
4990, 5218, 5219, 5258, 5257
4991, 5219, 5220, 5259, 5258
4992, 5220, 5221, 5260, 5259
4993, 5221, 5222, 5261, 5260
4994, 5222, 5223, 5262, 5261
4995, 5223, 5224, 5263, 5262
4996, 5224, 5225, 5264, 5263
4997, 5225, 5226, 5265, 5264
4998, 5226, 5227, 5266, 5265
4999, 5227, 5228, 5267, 5266
5000, 5228,  363,  364, 5267
5001,  464, 5229, 5268,  463
5002, 5229, 5230, 5269, 5268
5003, 5230, 5231, 5270, 5269
5004, 5231, 5232, 5271, 5270
5005, 5232, 5233, 5272, 5271
5006, 5233, 5234, 5273, 5272
5007, 5234, 5235, 5274, 5273
5008, 5235, 5236, 5275, 5274
5009, 5236, 5237, 5276, 5275
5010, 5237, 5238, 5277, 5276
5011, 5238, 5239, 5278, 5277
5012, 5239, 5240, 5279, 5278
5013, 5240, 5241, 5280, 5279
5014, 5241, 5242, 5281, 5280
5015, 5242, 5243, 5282, 5281
5016, 5243, 5244, 5283, 5282
5017, 5244, 5245, 5284, 5283
5018, 5245, 5246, 5285, 5284
5019, 5246, 5247, 5286, 5285
5020, 5247, 5248, 5287, 5286
5021, 5248, 5249, 5288, 5287
5022, 5249, 5250, 5289, 5288
5023, 5250, 5251, 5290, 5289
5024, 5251, 5252, 5291, 5290
5025, 5252, 5253, 5292, 5291
5026, 5253, 5254, 5293, 5292
5027, 5254, 5255, 5294, 5293
5028, 5255, 5256, 5295, 5294
5029, 5256, 5257, 5296, 5295
5030, 5257, 5258, 5297, 5296
5031, 5258, 5259, 5298, 5297
5032, 5259, 5260, 5299, 5298
5033, 5260, 5261, 5300, 5299
5034, 5261, 5262, 5301, 5300
5035, 5262, 5263, 5302, 5301
5036, 5263, 5264, 5303, 5302
5037, 5264, 5265, 5304, 5303
5038, 5265, 5266, 5305, 5304
5039, 5266, 5267, 5306, 5305
5040, 5267,  364,  365, 5306
5041,  463, 5268, 5307,  462
5042, 5268, 5269, 5308, 5307
5043, 5269, 5270, 5309, 5308
5044, 5270, 5271, 5310, 5309
5045, 5271, 5272, 5311, 5310
5046, 5272, 5273, 5312, 5311
5047, 5273, 5274, 5313, 5312
5048, 5274, 5275, 5314, 5313
5049, 5275, 5276, 5315, 5314
5050, 5276, 5277, 5316, 5315
5051, 5277, 5278, 5317, 5316
5052, 5278, 5279, 5318, 5317
5053, 5279, 5280, 5319, 5318
5054, 5280, 5281, 5320, 5319
5055, 5281, 5282, 5321, 5320
5056, 5282, 5283, 5322, 5321
5057, 5283, 5284, 5323, 5322
5058, 5284, 5285, 5324, 5323
5059, 5285, 5286, 5325, 5324
5060, 5286, 5287, 5326, 5325
5061, 5287, 5288, 5327, 5326
5062, 5288, 5289, 5328, 5327
5063, 5289, 5290, 5329, 5328
5064, 5290, 5291, 5330, 5329
5065, 5291, 5292, 5331, 5330
5066, 5292, 5293, 5332, 5331
5067, 5293, 5294, 5333, 5332
5068, 5294, 5295, 5334, 5333
5069, 5295, 5296, 5335, 5334
5070, 5296, 5297, 5336, 5335
5071, 5297, 5298, 5337, 5336
5072, 5298, 5299, 5338, 5337
5073, 5299, 5300, 5339, 5338
5074, 5300, 5301, 5340, 5339
5075, 5301, 5302, 5341, 5340
5076, 5302, 5303, 5342, 5341
5077, 5303, 5304, 5343, 5342
5078, 5304, 5305, 5344, 5343
5079, 5305, 5306, 5345, 5344
5080, 5306,  365,  366, 5345
5081,  462, 5307, 5346,  461
5082, 5307, 5308, 5347, 5346
5083, 5308, 5309, 5348, 5347
5084, 5309, 5310, 5349, 5348
5085, 5310, 5311, 5350, 5349
5086, 5311, 5312, 5351, 5350
5087, 5312, 5313, 5352, 5351
5088, 5313, 5314, 5353, 5352
5089, 5314, 5315, 5354, 5353
5090, 5315, 5316, 5355, 5354
5091, 5316, 5317, 5356, 5355
5092, 5317, 5318, 5357, 5356
5093, 5318, 5319, 5358, 5357
5094, 5319, 5320, 5359, 5358
5095, 5320, 5321, 5360, 5359
5096, 5321, 5322, 5361, 5360
5097, 5322, 5323, 5362, 5361
5098, 5323, 5324, 5363, 5362
5099, 5324, 5325, 5364, 5363
5100, 5325, 5326, 5365, 5364
5101, 5326, 5327, 5366, 5365
5102, 5327, 5328, 5367, 5366
5103, 5328, 5329, 5368, 5367
5104, 5329, 5330, 5369, 5368
5105, 5330, 5331, 5370, 5369
5106, 5331, 5332, 5371, 5370
5107, 5332, 5333, 5372, 5371
5108, 5333, 5334, 5373, 5372
5109, 5334, 5335, 5374, 5373
5110, 5335, 5336, 5375, 5374
5111, 5336, 5337, 5376, 5375
5112, 5337, 5338, 5377, 5376
5113, 5338, 5339, 5378, 5377
5114, 5339, 5340, 5379, 5378
5115, 5340, 5341, 5380, 5379
5116, 5341, 5342, 5381, 5380
5117, 5342, 5343, 5382, 5381
5118, 5343, 5344, 5383, 5382
5119, 5344, 5345, 5384, 5383
5120, 5345,  366,  367, 5384
5121,  461, 5346, 5385,  460
5122, 5346, 5347, 5386, 5385
5123, 5347, 5348, 5387, 5386
5124, 5348, 5349, 5388, 5387
5125, 5349, 5350, 5389, 5388
5126, 5350, 5351, 5390, 5389
5127, 5351, 5352, 5391, 5390
5128, 5352, 5353, 5392, 5391
5129, 5353, 5354, 5393, 5392
5130, 5354, 5355, 5394, 5393
5131, 5355, 5356, 5395, 5394
5132, 5356, 5357, 5396, 5395
5133, 5357, 5358, 5397, 5396
5134, 5358, 5359, 5398, 5397
5135, 5359, 5360, 5399, 5398
5136, 5360, 5361, 5400, 5399
5137, 5361, 5362, 5401, 5400
5138, 5362, 5363, 5402, 5401
5139, 5363, 5364, 5403, 5402
5140, 5364, 5365, 5404, 5403
5141, 5365, 5366, 5405, 5404
5142, 5366, 5367, 5406, 5405
5143, 5367, 5368, 5407, 5406
5144, 5368, 5369, 5408, 5407
5145, 5369, 5370, 5409, 5408
5146, 5370, 5371, 5410, 5409
5147, 5371, 5372, 5411, 5410
5148, 5372, 5373, 5412, 5411
5149, 5373, 5374, 5413, 5412
5150, 5374, 5375, 5414, 5413
5151, 5375, 5376, 5415, 5414
5152, 5376, 5377, 5416, 5415
5153, 5377, 5378, 5417, 5416
5154, 5378, 5379, 5418, 5417
5155, 5379, 5380, 5419, 5418
5156, 5380, 5381, 5420, 5419
5157, 5381, 5382, 5421, 5420
5158, 5382, 5383, 5422, 5421
5159, 5383, 5384, 5423, 5422
5160, 5384,  367,  368, 5423
5161,  460, 5385, 5424,  459
5162, 5385, 5386, 5425, 5424
5163, 5386, 5387, 5426, 5425
5164, 5387, 5388, 5427, 5426
5165, 5388, 5389, 5428, 5427
5166, 5389, 5390, 5429, 5428
5167, 5390, 5391, 5430, 5429
5168, 5391, 5392, 5431, 5430
5169, 5392, 5393, 5432, 5431
5170, 5393, 5394, 5433, 5432
5171, 5394, 5395, 5434, 5433
5172, 5395, 5396, 5435, 5434
5173, 5396, 5397, 5436, 5435
5174, 5397, 5398, 5437, 5436
5175, 5398, 5399, 5438, 5437
5176, 5399, 5400, 5439, 5438
5177, 5400, 5401, 5440, 5439
5178, 5401, 5402, 5441, 5440
5179, 5402, 5403, 5442, 5441
5180, 5403, 5404, 5443, 5442
5181, 5404, 5405, 5444, 5443
5182, 5405, 5406, 5445, 5444
5183, 5406, 5407, 5446, 5445
5184, 5407, 5408, 5447, 5446
5185, 5408, 5409, 5448, 5447
5186, 5409, 5410, 5449, 5448
5187, 5410, 5411, 5450, 5449
5188, 5411, 5412, 5451, 5450
5189, 5412, 5413, 5452, 5451
5190, 5413, 5414, 5453, 5452
5191, 5414, 5415, 5454, 5453
5192, 5415, 5416, 5455, 5454
5193, 5416, 5417, 5456, 5455
5194, 5417, 5418, 5457, 5456
5195, 5418, 5419, 5458, 5457
5196, 5419, 5420, 5459, 5458
5197, 5420, 5421, 5460, 5459
5198, 5421, 5422, 5461, 5460
5199, 5422, 5423, 5462, 5461
5200, 5423,  368,  369, 5462
5201,  459, 5424, 5463,  458
5202, 5424, 5425, 5464, 5463
5203, 5425, 5426, 5465, 5464
5204, 5426, 5427, 5466, 5465
5205, 5427, 5428, 5467, 5466
5206, 5428, 5429, 5468, 5467
5207, 5429, 5430, 5469, 5468
5208, 5430, 5431, 5470, 5469
5209, 5431, 5432, 5471, 5470
5210, 5432, 5433, 5472, 5471
5211, 5433, 5434, 5473, 5472
5212, 5434, 5435, 5474, 5473
5213, 5435, 5436, 5475, 5474
5214, 5436, 5437, 5476, 5475
5215, 5437, 5438, 5477, 5476
5216, 5438, 5439, 5478, 5477
5217, 5439, 5440, 5479, 5478
5218, 5440, 5441, 5480, 5479
5219, 5441, 5442, 5481, 5480
5220, 5442, 5443, 5482, 5481
5221, 5443, 5444, 5483, 5482
5222, 5444, 5445, 5484, 5483
5223, 5445, 5446, 5485, 5484
5224, 5446, 5447, 5486, 5485
5225, 5447, 5448, 5487, 5486
5226, 5448, 5449, 5488, 5487
5227, 5449, 5450, 5489, 5488
5228, 5450, 5451, 5490, 5489
5229, 5451, 5452, 5491, 5490
5230, 5452, 5453, 5492, 5491
5231, 5453, 5454, 5493, 5492
5232, 5454, 5455, 5494, 5493
5233, 5455, 5456, 5495, 5494
5234, 5456, 5457, 5496, 5495
5235, 5457, 5458, 5497, 5496
5236, 5458, 5459, 5498, 5497
5237, 5459, 5460, 5499, 5498
5238, 5460, 5461, 5500, 5499
5239, 5461, 5462, 5501, 5500
5240, 5462,  369,  370, 5501
5241,  458, 5463, 5502,  457
5242, 5463, 5464, 5503, 5502
5243, 5464, 5465, 5504, 5503
5244, 5465, 5466, 5505, 5504
5245, 5466, 5467, 5506, 5505
5246, 5467, 5468, 5507, 5506
5247, 5468, 5469, 5508, 5507
5248, 5469, 5470, 5509, 5508
5249, 5470, 5471, 5510, 5509
5250, 5471, 5472, 5511, 5510
5251, 5472, 5473, 5512, 5511
5252, 5473, 5474, 5513, 5512
5253, 5474, 5475, 5514, 5513
5254, 5475, 5476, 5515, 5514
5255, 5476, 5477, 5516, 5515
5256, 5477, 5478, 5517, 5516
5257, 5478, 5479, 5518, 5517
5258, 5479, 5480, 5519, 5518
5259, 5480, 5481, 5520, 5519
5260, 5481, 5482, 5521, 5520
5261, 5482, 5483, 5522, 5521
5262, 5483, 5484, 5523, 5522
5263, 5484, 5485, 5524, 5523
5264, 5485, 5486, 5525, 5524
5265, 5486, 5487, 5526, 5525
5266, 5487, 5488, 5527, 5526
5267, 5488, 5489, 5528, 5527
5268, 5489, 5490, 5529, 5528
5269, 5490, 5491, 5530, 5529
5270, 5491, 5492, 5531, 5530
5271, 5492, 5493, 5532, 5531
5272, 5493, 5494, 5533, 5532
5273, 5494, 5495, 5534, 5533
5274, 5495, 5496, 5535, 5534
5275, 5496, 5497, 5536, 5535
5276, 5497, 5498, 5537, 5536
5277, 5498, 5499, 5538, 5537
5278, 5499, 5500, 5539, 5538
5279, 5500, 5501, 5540, 5539
5280, 5501,  370,  371, 5540
5281,  457, 5502, 5541,  456
5282, 5502, 5503, 5542, 5541
5283, 5503, 5504, 5543, 5542
5284, 5504, 5505, 5544, 5543
5285, 5505, 5506, 5545, 5544
5286, 5506, 5507, 5546, 5545
5287, 5507, 5508, 5547, 5546
5288, 5508, 5509, 5548, 5547
5289, 5509, 5510, 5549, 5548
5290, 5510, 5511, 5550, 5549
5291, 5511, 5512, 5551, 5550
5292, 5512, 5513, 5552, 5551
5293, 5513, 5514, 5553, 5552
5294, 5514, 5515, 5554, 5553
5295, 5515, 5516, 5555, 5554
5296, 5516, 5517, 5556, 5555
5297, 5517, 5518, 5557, 5556
5298, 5518, 5519, 5558, 5557
5299, 5519, 5520, 5559, 5558
5300, 5520, 5521, 5560, 5559
5301, 5521, 5522, 5561, 5560
5302, 5522, 5523, 5562, 5561
5303, 5523, 5524, 5563, 5562
5304, 5524, 5525, 5564, 5563
5305, 5525, 5526, 5565, 5564
5306, 5526, 5527, 5566, 5565
5307, 5527, 5528, 5567, 5566
5308, 5528, 5529, 5568, 5567
5309, 5529, 5530, 5569, 5568
5310, 5530, 5531, 5570, 5569
5311, 5531, 5532, 5571, 5570
5312, 5532, 5533, 5572, 5571
5313, 5533, 5534, 5573, 5572
5314, 5534, 5535, 5574, 5573
5315, 5535, 5536, 5575, 5574
5316, 5536, 5537, 5576, 5575
5317, 5537, 5538, 5577, 5576
5318, 5538, 5539, 5578, 5577
5319, 5539, 5540, 5579, 5578
5320, 5540,  371,  372, 5579
5321,  456, 5541, 5580,  455
5322, 5541, 5542, 5581, 5580
5323, 5542, 5543, 5582, 5581
5324, 5543, 5544, 5583, 5582
5325, 5544, 5545, 5584, 5583
5326, 5545, 5546, 5585, 5584
5327, 5546, 5547, 5586, 5585
5328, 5547, 5548, 5587, 5586
5329, 5548, 5549, 5588, 5587
5330, 5549, 5550, 5589, 5588
5331, 5550, 5551, 5590, 5589
5332, 5551, 5552, 5591, 5590
5333, 5552, 5553, 5592, 5591
5334, 5553, 5554, 5593, 5592
5335, 5554, 5555, 5594, 5593
5336, 5555, 5556, 5595, 5594
5337, 5556, 5557, 5596, 5595
5338, 5557, 5558, 5597, 5596
5339, 5558, 5559, 5598, 5597
5340, 5559, 5560, 5599, 5598
5341, 5560, 5561, 5600, 5599
5342, 5561, 5562, 5601, 5600
5343, 5562, 5563, 5602, 5601
5344, 5563, 5564, 5603, 5602
5345, 5564, 5565, 5604, 5603
5346, 5565, 5566, 5605, 5604
5347, 5566, 5567, 5606, 5605
5348, 5567, 5568, 5607, 5606
5349, 5568, 5569, 5608, 5607
5350, 5569, 5570, 5609, 5608
5351, 5570, 5571, 5610, 5609
5352, 5571, 5572, 5611, 5610
5353, 5572, 5573, 5612, 5611
5354, 5573, 5574, 5613, 5612
5355, 5574, 5575, 5614, 5613
5356, 5575, 5576, 5615, 5614
5357, 5576, 5577, 5616, 5615
5358, 5577, 5578, 5617, 5616
5359, 5578, 5579, 5618, 5617
5360, 5579,  372,  373, 5618
5361,  455, 5580, 5619,  454
5362, 5580, 5581, 5620, 5619
5363, 5581, 5582, 5621, 5620
5364, 5582, 5583, 5622, 5621
5365, 5583, 5584, 5623, 5622
5366, 5584, 5585, 5624, 5623
5367, 5585, 5586, 5625, 5624
5368, 5586, 5587, 5626, 5625
5369, 5587, 5588, 5627, 5626
5370, 5588, 5589, 5628, 5627
5371, 5589, 5590, 5629, 5628
5372, 5590, 5591, 5630, 5629
5373, 5591, 5592, 5631, 5630
5374, 5592, 5593, 5632, 5631
5375, 5593, 5594, 5633, 5632
5376, 5594, 5595, 5634, 5633
5377, 5595, 5596, 5635, 5634
5378, 5596, 5597, 5636, 5635
5379, 5597, 5598, 5637, 5636
5380, 5598, 5599, 5638, 5637
5381, 5599, 5600, 5639, 5638
5382, 5600, 5601, 5640, 5639
5383, 5601, 5602, 5641, 5640
5384, 5602, 5603, 5642, 5641
5385, 5603, 5604, 5643, 5642
5386, 5604, 5605, 5644, 5643
5387, 5605, 5606, 5645, 5644
5388, 5606, 5607, 5646, 5645
5389, 5607, 5608, 5647, 5646
5390, 5608, 5609, 5648, 5647
5391, 5609, 5610, 5649, 5648
5392, 5610, 5611, 5650, 5649
5393, 5611, 5612, 5651, 5650
5394, 5612, 5613, 5652, 5651
5395, 5613, 5614, 5653, 5652
5396, 5614, 5615, 5654, 5653
5397, 5615, 5616, 5655, 5654
5398, 5616, 5617, 5656, 5655
5399, 5617, 5618, 5657, 5656
5400, 5618,  373,  374, 5657
5401,  454, 5619, 5658,  453
5402, 5619, 5620, 5659, 5658
5403, 5620, 5621, 5660, 5659
5404, 5621, 5622, 5661, 5660
5405, 5622, 5623, 5662, 5661
5406, 5623, 5624, 5663, 5662
5407, 5624, 5625, 5664, 5663
5408, 5625, 5626, 5665, 5664
5409, 5626, 5627, 5666, 5665
5410, 5627, 5628, 5667, 5666
5411, 5628, 5629, 5668, 5667
5412, 5629, 5630, 5669, 5668
5413, 5630, 5631, 5670, 5669
5414, 5631, 5632, 5671, 5670
5415, 5632, 5633, 5672, 5671
5416, 5633, 5634, 5673, 5672
5417, 5634, 5635, 5674, 5673
5418, 5635, 5636, 5675, 5674
5419, 5636, 5637, 5676, 5675
5420, 5637, 5638, 5677, 5676
5421, 5638, 5639, 5678, 5677
5422, 5639, 5640, 5679, 5678
5423, 5640, 5641, 5680, 5679
5424, 5641, 5642, 5681, 5680
5425, 5642, 5643, 5682, 5681
5426, 5643, 5644, 5683, 5682
5427, 5644, 5645, 5684, 5683
5428, 5645, 5646, 5685, 5684
5429, 5646, 5647, 5686, 5685
5430, 5647, 5648, 5687, 5686
5431, 5648, 5649, 5688, 5687
5432, 5649, 5650, 5689, 5688
5433, 5650, 5651, 5690, 5689
5434, 5651, 5652, 5691, 5690
5435, 5652, 5653, 5692, 5691
5436, 5653, 5654, 5693, 5692
5437, 5654, 5655, 5694, 5693
5438, 5655, 5656, 5695, 5694
5439, 5656, 5657, 5696, 5695
5440, 5657,  374,  375, 5696
5441,  453, 5658, 5697,  452
5442, 5658, 5659, 5698, 5697
5443, 5659, 5660, 5699, 5698
5444, 5660, 5661, 5700, 5699
5445, 5661, 5662, 5701, 5700
5446, 5662, 5663, 5702, 5701
5447, 5663, 5664, 5703, 5702
5448, 5664, 5665, 5704, 5703
5449, 5665, 5666, 5705, 5704
5450, 5666, 5667, 5706, 5705
5451, 5667, 5668, 5707, 5706
5452, 5668, 5669, 5708, 5707
5453, 5669, 5670, 5709, 5708
5454, 5670, 5671, 5710, 5709
5455, 5671, 5672, 5711, 5710
5456, 5672, 5673, 5712, 5711
5457, 5673, 5674, 5713, 5712
5458, 5674, 5675, 5714, 5713
5459, 5675, 5676, 5715, 5714
5460, 5676, 5677, 5716, 5715
5461, 5677, 5678, 5717, 5716
5462, 5678, 5679, 5718, 5717
5463, 5679, 5680, 5719, 5718
5464, 5680, 5681, 5720, 5719
5465, 5681, 5682, 5721, 5720
5466, 5682, 5683, 5722, 5721
5467, 5683, 5684, 5723, 5722
5468, 5684, 5685, 5724, 5723
5469, 5685, 5686, 5725, 5724
5470, 5686, 5687, 5726, 5725
5471, 5687, 5688, 5727, 5726
5472, 5688, 5689, 5728, 5727
5473, 5689, 5690, 5729, 5728
5474, 5690, 5691, 5730, 5729
5475, 5691, 5692, 5731, 5730
5476, 5692, 5693, 5732, 5731
5477, 5693, 5694, 5733, 5732
5478, 5694, 5695, 5734, 5733
5479, 5695, 5696, 5735, 5734
5480, 5696,  375,  376, 5735
5481,  452, 5697, 5736,  451
5482, 5697, 5698, 5737, 5736
5483, 5698, 5699, 5738, 5737
5484, 5699, 5700, 5739, 5738
5485, 5700, 5701, 5740, 5739
5486, 5701, 5702, 5741, 5740
5487, 5702, 5703, 5742, 5741
5488, 5703, 5704, 5743, 5742
5489, 5704, 5705, 5744, 5743
5490, 5705, 5706, 5745, 5744
5491, 5706, 5707, 5746, 5745
5492, 5707, 5708, 5747, 5746
5493, 5708, 5709, 5748, 5747
5494, 5709, 5710, 5749, 5748
5495, 5710, 5711, 5750, 5749
5496, 5711, 5712, 5751, 5750
5497, 5712, 5713, 5752, 5751
5498, 5713, 5714, 5753, 5752
5499, 5714, 5715, 5754, 5753
5500, 5715, 5716, 5755, 5754
5501, 5716, 5717, 5756, 5755
5502, 5717, 5718, 5757, 5756
5503, 5718, 5719, 5758, 5757
5504, 5719, 5720, 5759, 5758
5505, 5720, 5721, 5760, 5759
5506, 5721, 5722, 5761, 5760
5507, 5722, 5723, 5762, 5761
5508, 5723, 5724, 5763, 5762
5509, 5724, 5725, 5764, 5763
5510, 5725, 5726, 5765, 5764
5511, 5726, 5727, 5766, 5765
5512, 5727, 5728, 5767, 5766
5513, 5728, 5729, 5768, 5767
5514, 5729, 5730, 5769, 5768
5515, 5730, 5731, 5770, 5769
5516, 5731, 5732, 5771, 5770
5517, 5732, 5733, 5772, 5771
5518, 5733, 5734, 5773, 5772
5519, 5734, 5735, 5774, 5773
5520, 5735,  376,  377, 5774
5521,  451, 5736, 5775,  450
5522, 5736, 5737, 5776, 5775
5523, 5737, 5738, 5777, 5776
5524, 5738, 5739, 5778, 5777
5525, 5739, 5740, 5779, 5778
5526, 5740, 5741, 5780, 5779
5527, 5741, 5742, 5781, 5780
5528, 5742, 5743, 5782, 5781
5529, 5743, 5744, 5783, 5782
5530, 5744, 5745, 5784, 5783
5531, 5745, 5746, 5785, 5784
5532, 5746, 5747, 5786, 5785
5533, 5747, 5748, 5787, 5786
5534, 5748, 5749, 5788, 5787
5535, 5749, 5750, 5789, 5788
5536, 5750, 5751, 5790, 5789
5537, 5751, 5752, 5791, 5790
5538, 5752, 5753, 5792, 5791
5539, 5753, 5754, 5793, 5792
5540, 5754, 5755, 5794, 5793
5541, 5755, 5756, 5795, 5794
5542, 5756, 5757, 5796, 5795
5543, 5757, 5758, 5797, 5796
5544, 5758, 5759, 5798, 5797
5545, 5759, 5760, 5799, 5798
5546, 5760, 5761, 5800, 5799
5547, 5761, 5762, 5801, 5800
5548, 5762, 5763, 5802, 5801
5549, 5763, 5764, 5803, 5802
5550, 5764, 5765, 5804, 5803
5551, 5765, 5766, 5805, 5804
5552, 5766, 5767, 5806, 5805
5553, 5767, 5768, 5807, 5806
5554, 5768, 5769, 5808, 5807
5555, 5769, 5770, 5809, 5808
5556, 5770, 5771, 5810, 5809
5557, 5771, 5772, 5811, 5810
5558, 5772, 5773, 5812, 5811
5559, 5773, 5774, 5813, 5812
5560, 5774,  377,  378, 5813
5561,  450, 5775, 5814,  449
5562, 5775, 5776, 5815, 5814
5563, 5776, 5777, 5816, 5815
5564, 5777, 5778, 5817, 5816
5565, 5778, 5779, 5818, 5817
5566, 5779, 5780, 5819, 5818
5567, 5780, 5781, 5820, 5819
5568, 5781, 5782, 5821, 5820
5569, 5782, 5783, 5822, 5821
5570, 5783, 5784, 5823, 5822
5571, 5784, 5785, 5824, 5823
5572, 5785, 5786, 5825, 5824
5573, 5786, 5787, 5826, 5825
5574, 5787, 5788, 5827, 5826
5575, 5788, 5789, 5828, 5827
5576, 5789, 5790, 5829, 5828
5577, 5790, 5791, 5830, 5829
5578, 5791, 5792, 5831, 5830
5579, 5792, 5793, 5832, 5831
5580, 5793, 5794, 5833, 5832
5581, 5794, 5795, 5834, 5833
5582, 5795, 5796, 5835, 5834
5583, 5796, 5797, 5836, 5835
5584, 5797, 5798, 5837, 5836
5585, 5798, 5799, 5838, 5837
5586, 5799, 5800, 5839, 5838
5587, 5800, 5801, 5840, 5839
5588, 5801, 5802, 5841, 5840
5589, 5802, 5803, 5842, 5841
5590, 5803, 5804, 5843, 5842
5591, 5804, 5805, 5844, 5843
5592, 5805, 5806, 5845, 5844
5593, 5806, 5807, 5846, 5845
5594, 5807, 5808, 5847, 5846
5595, 5808, 5809, 5848, 5847
5596, 5809, 5810, 5849, 5848
5597, 5810, 5811, 5850, 5849
5598, 5811, 5812, 5851, 5850
5599, 5812, 5813, 5852, 5851
5600, 5813,  378,  379, 5852
5601,  449, 5814, 5853,  448
5602, 5814, 5815, 5854, 5853
5603, 5815, 5816, 5855, 5854
5604, 5816, 5817, 5856, 5855
5605, 5817, 5818, 5857, 5856
5606, 5818, 5819, 5858, 5857
5607, 5819, 5820, 5859, 5858
5608, 5820, 5821, 5860, 5859
5609, 5821, 5822, 5861, 5860
5610, 5822, 5823, 5862, 5861
5611, 5823, 5824, 5863, 5862
5612, 5824, 5825, 5864, 5863
5613, 5825, 5826, 5865, 5864
5614, 5826, 5827, 5866, 5865
5615, 5827, 5828, 5867, 5866
5616, 5828, 5829, 5868, 5867
5617, 5829, 5830, 5869, 5868
5618, 5830, 5831, 5870, 5869
5619, 5831, 5832, 5871, 5870
5620, 5832, 5833, 5872, 5871
5621, 5833, 5834, 5873, 5872
5622, 5834, 5835, 5874, 5873
5623, 5835, 5836, 5875, 5874
5624, 5836, 5837, 5876, 5875
5625, 5837, 5838, 5877, 5876
5626, 5838, 5839, 5878, 5877
5627, 5839, 5840, 5879, 5878
5628, 5840, 5841, 5880, 5879
5629, 5841, 5842, 5881, 5880
5630, 5842, 5843, 5882, 5881
5631, 5843, 5844, 5883, 5882
5632, 5844, 5845, 5884, 5883
5633, 5845, 5846, 5885, 5884
5634, 5846, 5847, 5886, 5885
5635, 5847, 5848, 5887, 5886
5636, 5848, 5849, 5888, 5887
5637, 5849, 5850, 5889, 5888
5638, 5850, 5851, 5890, 5889
5639, 5851, 5852, 5891, 5890
5640, 5852,  379,  380, 5891
5641,  448, 5853, 5892,  447
5642, 5853, 5854, 5893, 5892
5643, 5854, 5855, 5894, 5893
5644, 5855, 5856, 5895, 5894
5645, 5856, 5857, 5896, 5895
5646, 5857, 5858, 5897, 5896
5647, 5858, 5859, 5898, 5897
5648, 5859, 5860, 5899, 5898
5649, 5860, 5861, 5900, 5899
5650, 5861, 5862, 5901, 5900
5651, 5862, 5863, 5902, 5901
5652, 5863, 5864, 5903, 5902
5653, 5864, 5865, 5904, 5903
5654, 5865, 5866, 5905, 5904
5655, 5866, 5867, 5906, 5905
5656, 5867, 5868, 5907, 5906
5657, 5868, 5869, 5908, 5907
5658, 5869, 5870, 5909, 5908
5659, 5870, 5871, 5910, 5909
5660, 5871, 5872, 5911, 5910
5661, 5872, 5873, 5912, 5911
5662, 5873, 5874, 5913, 5912
5663, 5874, 5875, 5914, 5913
5664, 5875, 5876, 5915, 5914
5665, 5876, 5877, 5916, 5915
5666, 5877, 5878, 5917, 5916
5667, 5878, 5879, 5918, 5917
5668, 5879, 5880, 5919, 5918
5669, 5880, 5881, 5920, 5919
5670, 5881, 5882, 5921, 5920
5671, 5882, 5883, 5922, 5921
5672, 5883, 5884, 5923, 5922
5673, 5884, 5885, 5924, 5923
5674, 5885, 5886, 5925, 5924
5675, 5886, 5887, 5926, 5925
5676, 5887, 5888, 5927, 5926
5677, 5888, 5889, 5928, 5927
5678, 5889, 5890, 5929, 5928
5679, 5890, 5891, 5930, 5929
5680, 5891,  380,  381, 5930
5681,  447, 5892, 5931,  446
5682, 5892, 5893, 5932, 5931
5683, 5893, 5894, 5933, 5932
5684, 5894, 5895, 5934, 5933
5685, 5895, 5896, 5935, 5934
5686, 5896, 5897, 5936, 5935
5687, 5897, 5898, 5937, 5936
5688, 5898, 5899, 5938, 5937
5689, 5899, 5900, 5939, 5938
5690, 5900, 5901, 5940, 5939
5691, 5901, 5902, 5941, 5940
5692, 5902, 5903, 5942, 5941
5693, 5903, 5904, 5943, 5942
5694, 5904, 5905, 5944, 5943
5695, 5905, 5906, 5945, 5944
5696, 5906, 5907, 5946, 5945
5697, 5907, 5908, 5947, 5946
5698, 5908, 5909, 5948, 5947
5699, 5909, 5910, 5949, 5948
5700, 5910, 5911, 5950, 5949
5701, 5911, 5912, 5951, 5950
5702, 5912, 5913, 5952, 5951
5703, 5913, 5914, 5953, 5952
5704, 5914, 5915, 5954, 5953
5705, 5915, 5916, 5955, 5954
5706, 5916, 5917, 5956, 5955
5707, 5917, 5918, 5957, 5956
5708, 5918, 5919, 5958, 5957
5709, 5919, 5920, 5959, 5958
5710, 5920, 5921, 5960, 5959
5711, 5921, 5922, 5961, 5960
5712, 5922, 5923, 5962, 5961
5713, 5923, 5924, 5963, 5962
5714, 5924, 5925, 5964, 5963
5715, 5925, 5926, 5965, 5964
5716, 5926, 5927, 5966, 5965
5717, 5927, 5928, 5967, 5966
5718, 5928, 5929, 5968, 5967
5719, 5929, 5930, 5969, 5968
5720, 5930,  381,  382, 5969
5721,  446, 5931, 5970,  445
5722, 5931, 5932, 5971, 5970
5723, 5932, 5933, 5972, 5971
5724, 5933, 5934, 5973, 5972
5725, 5934, 5935, 5974, 5973
5726, 5935, 5936, 5975, 5974
5727, 5936, 5937, 5976, 5975
5728, 5937, 5938, 5977, 5976
5729, 5938, 5939, 5978, 5977
5730, 5939, 5940, 5979, 5978
5731, 5940, 5941, 5980, 5979
5732, 5941, 5942, 5981, 5980
5733, 5942, 5943, 5982, 5981
5734, 5943, 5944, 5983, 5982
5735, 5944, 5945, 5984, 5983
5736, 5945, 5946, 5985, 5984
5737, 5946, 5947, 5986, 5985
5738, 5947, 5948, 5987, 5986
5739, 5948, 5949, 5988, 5987
5740, 5949, 5950, 5989, 5988
5741, 5950, 5951, 5990, 5989
5742, 5951, 5952, 5991, 5990
5743, 5952, 5953, 5992, 5991
5744, 5953, 5954, 5993, 5992
5745, 5954, 5955, 5994, 5993
5746, 5955, 5956, 5995, 5994
5747, 5956, 5957, 5996, 5995
5748, 5957, 5958, 5997, 5996
5749, 5958, 5959, 5998, 5997
5750, 5959, 5960, 5999, 5998
5751, 5960, 5961, 6000, 5999
5752, 5961, 5962, 6001, 6000
5753, 5962, 5963, 6002, 6001
5754, 5963, 5964, 6003, 6002
5755, 5964, 5965, 6004, 6003
5756, 5965, 5966, 6005, 6004
5757, 5966, 5967, 6006, 6005
5758, 5967, 5968, 6007, 6006
5759, 5968, 5969, 6008, 6007
5760, 5969,  382,  383, 6008
5761,  445, 5970, 6009,  444
5762, 5970, 5971, 6010, 6009
5763, 5971, 5972, 6011, 6010
5764, 5972, 5973, 6012, 6011
5765, 5973, 5974, 6013, 6012
5766, 5974, 5975, 6014, 6013
5767, 5975, 5976, 6015, 6014
5768, 5976, 5977, 6016, 6015
5769, 5977, 5978, 6017, 6016
5770, 5978, 5979, 6018, 6017
5771, 5979, 5980, 6019, 6018
5772, 5980, 5981, 6020, 6019
5773, 5981, 5982, 6021, 6020
5774, 5982, 5983, 6022, 6021
5775, 5983, 5984, 6023, 6022
5776, 5984, 5985, 6024, 6023
5777, 5985, 5986, 6025, 6024
5778, 5986, 5987, 6026, 6025
5779, 5987, 5988, 6027, 6026
5780, 5988, 5989, 6028, 6027
5781, 5989, 5990, 6029, 6028
5782, 5990, 5991, 6030, 6029
5783, 5991, 5992, 6031, 6030
5784, 5992, 5993, 6032, 6031
5785, 5993, 5994, 6033, 6032
5786, 5994, 5995, 6034, 6033
5787, 5995, 5996, 6035, 6034
5788, 5996, 5997, 6036, 6035
5789, 5997, 5998, 6037, 6036
5790, 5998, 5999, 6038, 6037
5791, 5999, 6000, 6039, 6038
5792, 6000, 6001, 6040, 6039
5793, 6001, 6002, 6041, 6040
5794, 6002, 6003, 6042, 6041
5795, 6003, 6004, 6043, 6042
5796, 6004, 6005, 6044, 6043
5797, 6005, 6006, 6045, 6044
5798, 6006, 6007, 6046, 6045
5799, 6007, 6008, 6047, 6046
5800, 6008,  383,  384, 6047
5801,  444, 6009, 6048,  443
5802, 6009, 6010, 6049, 6048
5803, 6010, 6011, 6050, 6049
5804, 6011, 6012, 6051, 6050
5805, 6012, 6013, 6052, 6051
5806, 6013, 6014, 6053, 6052
5807, 6014, 6015, 6054, 6053
5808, 6015, 6016, 6055, 6054
5809, 6016, 6017, 6056, 6055
5810, 6017, 6018, 6057, 6056
5811, 6018, 6019, 6058, 6057
5812, 6019, 6020, 6059, 6058
5813, 6020, 6021, 6060, 6059
5814, 6021, 6022, 6061, 6060
5815, 6022, 6023, 6062, 6061
5816, 6023, 6024, 6063, 6062
5817, 6024, 6025, 6064, 6063
5818, 6025, 6026, 6065, 6064
5819, 6026, 6027, 6066, 6065
5820, 6027, 6028, 6067, 6066
5821, 6028, 6029, 6068, 6067
5822, 6029, 6030, 6069, 6068
5823, 6030, 6031, 6070, 6069
5824, 6031, 6032, 6071, 6070
5825, 6032, 6033, 6072, 6071
5826, 6033, 6034, 6073, 6072
5827, 6034, 6035, 6074, 6073
5828, 6035, 6036, 6075, 6074
5829, 6036, 6037, 6076, 6075
5830, 6037, 6038, 6077, 6076
5831, 6038, 6039, 6078, 6077
5832, 6039, 6040, 6079, 6078
5833, 6040, 6041, 6080, 6079
5834, 6041, 6042, 6081, 6080
5835, 6042, 6043, 6082, 6081
5836, 6043, 6044, 6083, 6082
5837, 6044, 6045, 6084, 6083
5838, 6045, 6046, 6085, 6084
5839, 6046, 6047, 6086, 6085
5840, 6047,  384,  385, 6086
5841,  443, 6048, 6087,  442
5842, 6048, 6049, 6088, 6087
5843, 6049, 6050, 6089, 6088
5844, 6050, 6051, 6090, 6089
5845, 6051, 6052, 6091, 6090
5846, 6052, 6053, 6092, 6091
5847, 6053, 6054, 6093, 6092
5848, 6054, 6055, 6094, 6093
5849, 6055, 6056, 6095, 6094
5850, 6056, 6057, 6096, 6095
5851, 6057, 6058, 6097, 6096
5852, 6058, 6059, 6098, 6097
5853, 6059, 6060, 6099, 6098
5854, 6060, 6061, 6100, 6099
5855, 6061, 6062, 6101, 6100
5856, 6062, 6063, 6102, 6101
5857, 6063, 6064, 6103, 6102
5858, 6064, 6065, 6104, 6103
5859, 6065, 6066, 6105, 6104
5860, 6066, 6067, 6106, 6105
5861, 6067, 6068, 6107, 6106
5862, 6068, 6069, 6108, 6107
5863, 6069, 6070, 6109, 6108
5864, 6070, 6071, 6110, 6109
5865, 6071, 6072, 6111, 6110
5866, 6072, 6073, 6112, 6111
5867, 6073, 6074, 6113, 6112
5868, 6074, 6075, 6114, 6113
5869, 6075, 6076, 6115, 6114
5870, 6076, 6077, 6116, 6115
5871, 6077, 6078, 6117, 6116
5872, 6078, 6079, 6118, 6117
5873, 6079, 6080, 6119, 6118
5874, 6080, 6081, 6120, 6119
5875, 6081, 6082, 6121, 6120
5876, 6082, 6083, 6122, 6121
5877, 6083, 6084, 6123, 6122
5878, 6084, 6085, 6124, 6123
5879, 6085, 6086, 6125, 6124
5880, 6086,  385,  386, 6125
5881,  442, 6087, 6126,  441
5882, 6087, 6088, 6127, 6126
5883, 6088, 6089, 6128, 6127
5884, 6089, 6090, 6129, 6128
5885, 6090, 6091, 6130, 6129
5886, 6091, 6092, 6131, 6130
5887, 6092, 6093, 6132, 6131
5888, 6093, 6094, 6133, 6132
5889, 6094, 6095, 6134, 6133
5890, 6095, 6096, 6135, 6134
5891, 6096, 6097, 6136, 6135
5892, 6097, 6098, 6137, 6136
5893, 6098, 6099, 6138, 6137
5894, 6099, 6100, 6139, 6138
5895, 6100, 6101, 6140, 6139
5896, 6101, 6102, 6141, 6140
5897, 6102, 6103, 6142, 6141
5898, 6103, 6104, 6143, 6142
5899, 6104, 6105, 6144, 6143
5900, 6105, 6106, 6145, 6144
5901, 6106, 6107, 6146, 6145
5902, 6107, 6108, 6147, 6146
5903, 6108, 6109, 6148, 6147
5904, 6109, 6110, 6149, 6148
5905, 6110, 6111, 6150, 6149
5906, 6111, 6112, 6151, 6150
5907, 6112, 6113, 6152, 6151
5908, 6113, 6114, 6153, 6152
5909, 6114, 6115, 6154, 6153
5910, 6115, 6116, 6155, 6154
5911, 6116, 6117, 6156, 6155
5912, 6117, 6118, 6157, 6156
5913, 6118, 6119, 6158, 6157
5914, 6119, 6120, 6159, 6158
5915, 6120, 6121, 6160, 6159
5916, 6121, 6122, 6161, 6160
5917, 6122, 6123, 6162, 6161
5918, 6123, 6124, 6163, 6162
5919, 6124, 6125, 6164, 6163
5920, 6125,  386,  387, 6164
5921,  441, 6126, 6165,  440
5922, 6126, 6127, 6166, 6165
5923, 6127, 6128, 6167, 6166
5924, 6128, 6129, 6168, 6167
5925, 6129, 6130, 6169, 6168
5926, 6130, 6131, 6170, 6169
5927, 6131, 6132, 6171, 6170
5928, 6132, 6133, 6172, 6171
5929, 6133, 6134, 6173, 6172
5930, 6134, 6135, 6174, 6173
5931, 6135, 6136, 6175, 6174
5932, 6136, 6137, 6176, 6175
5933, 6137, 6138, 6177, 6176
5934, 6138, 6139, 6178, 6177
5935, 6139, 6140, 6179, 6178
5936, 6140, 6141, 6180, 6179
5937, 6141, 6142, 6181, 6180
5938, 6142, 6143, 6182, 6181
5939, 6143, 6144, 6183, 6182
5940, 6144, 6145, 6184, 6183
5941, 6145, 6146, 6185, 6184
5942, 6146, 6147, 6186, 6185
5943, 6147, 6148, 6187, 6186
5944, 6148, 6149, 6188, 6187
5945, 6149, 6150, 6189, 6188
5946, 6150, 6151, 6190, 6189
5947, 6151, 6152, 6191, 6190
5948, 6152, 6153, 6192, 6191
5949, 6153, 6154, 6193, 6192
5950, 6154, 6155, 6194, 6193
5951, 6155, 6156, 6195, 6194
5952, 6156, 6157, 6196, 6195
5953, 6157, 6158, 6197, 6196
5954, 6158, 6159, 6198, 6197
5955, 6159, 6160, 6199, 6198
5956, 6160, 6161, 6200, 6199
5957, 6161, 6162, 6201, 6200
5958, 6162, 6163, 6202, 6201
5959, 6163, 6164, 6203, 6202
5960, 6164,  387,  388, 6203
5961,  440, 6165, 6204,  439
5962, 6165, 6166, 6205, 6204
5963, 6166, 6167, 6206, 6205
5964, 6167, 6168, 6207, 6206
5965, 6168, 6169, 6208, 6207
5966, 6169, 6170, 6209, 6208
5967, 6170, 6171, 6210, 6209
5968, 6171, 6172, 6211, 6210
5969, 6172, 6173, 6212, 6211
5970, 6173, 6174, 6213, 6212
5971, 6174, 6175, 6214, 6213
5972, 6175, 6176, 6215, 6214
5973, 6176, 6177, 6216, 6215
5974, 6177, 6178, 6217, 6216
5975, 6178, 6179, 6218, 6217
5976, 6179, 6180, 6219, 6218
5977, 6180, 6181, 6220, 6219
5978, 6181, 6182, 6221, 6220
5979, 6182, 6183, 6222, 6221
5980, 6183, 6184, 6223, 6222
5981, 6184, 6185, 6224, 6223
5982, 6185, 6186, 6225, 6224
5983, 6186, 6187, 6226, 6225
5984, 6187, 6188, 6227, 6226
5985, 6188, 6189, 6228, 6227
5986, 6189, 6190, 6229, 6228
5987, 6190, 6191, 6230, 6229
5988, 6191, 6192, 6231, 6230
5989, 6192, 6193, 6232, 6231
5990, 6193, 6194, 6233, 6232
5991, 6194, 6195, 6234, 6233
5992, 6195, 6196, 6235, 6234
5993, 6196, 6197, 6236, 6235
5994, 6197, 6198, 6237, 6236
5995, 6198, 6199, 6238, 6237
5996, 6199, 6200, 6239, 6238
5997, 6200, 6201, 6240, 6239
5998, 6201, 6202, 6241, 6240
5999, 6202, 6203, 6242, 6241
6000, 6203,  388,  389, 6242
6001,  439, 6204, 6243,  438
6002, 6204, 6205, 6244, 6243
6003, 6205, 6206, 6245, 6244
6004, 6206, 6207, 6246, 6245
6005, 6207, 6208, 6247, 6246
6006, 6208, 6209, 6248, 6247
6007, 6209, 6210, 6249, 6248
6008, 6210, 6211, 6250, 6249
6009, 6211, 6212, 6251, 6250
6010, 6212, 6213, 6252, 6251
6011, 6213, 6214, 6253, 6252
6012, 6214, 6215, 6254, 6253
6013, 6215, 6216, 6255, 6254
6014, 6216, 6217, 6256, 6255
6015, 6217, 6218, 6257, 6256
6016, 6218, 6219, 6258, 6257
6017, 6219, 6220, 6259, 6258
6018, 6220, 6221, 6260, 6259
6019, 6221, 6222, 6261, 6260
6020, 6222, 6223, 6262, 6261
6021, 6223, 6224, 6263, 6262
6022, 6224, 6225, 6264, 6263
6023, 6225, 6226, 6265, 6264
6024, 6226, 6227, 6266, 6265
6025, 6227, 6228, 6267, 6266
6026, 6228, 6229, 6268, 6267
6027, 6229, 6230, 6269, 6268
6028, 6230, 6231, 6270, 6269
6029, 6231, 6232, 6271, 6270
6030, 6232, 6233, 6272, 6271
6031, 6233, 6234, 6273, 6272
6032, 6234, 6235, 6274, 6273
6033, 6235, 6236, 6275, 6274
6034, 6236, 6237, 6276, 6275
6035, 6237, 6238, 6277, 6276
6036, 6238, 6239, 6278, 6277
6037, 6239, 6240, 6279, 6278
6038, 6240, 6241, 6280, 6279
6039, 6241, 6242, 6281, 6280
6040, 6242,  389,  390, 6281
6041,  438, 6243, 6282,  437
6042, 6243, 6244, 6283, 6282
6043, 6244, 6245, 6284, 6283
6044, 6245, 6246, 6285, 6284
6045, 6246, 6247, 6286, 6285
6046, 6247, 6248, 6287, 6286
6047, 6248, 6249, 6288, 6287
6048, 6249, 6250, 6289, 6288
6049, 6250, 6251, 6290, 6289
6050, 6251, 6252, 6291, 6290
6051, 6252, 6253, 6292, 6291
6052, 6253, 6254, 6293, 6292
6053, 6254, 6255, 6294, 6293
6054, 6255, 6256, 6295, 6294
6055, 6256, 6257, 6296, 6295
6056, 6257, 6258, 6297, 6296
6057, 6258, 6259, 6298, 6297
6058, 6259, 6260, 6299, 6298
6059, 6260, 6261, 6300, 6299
6060, 6261, 6262, 6301, 6300
6061, 6262, 6263, 6302, 6301
6062, 6263, 6264, 6303, 6302
6063, 6264, 6265, 6304, 6303
6064, 6265, 6266, 6305, 6304
6065, 6266, 6267, 6306, 6305
6066, 6267, 6268, 6307, 6306
6067, 6268, 6269, 6308, 6307
6068, 6269, 6270, 6309, 6308
6069, 6270, 6271, 6310, 6309
6070, 6271, 6272, 6311, 6310
6071, 6272, 6273, 6312, 6311
6072, 6273, 6274, 6313, 6312
6073, 6274, 6275, 6314, 6313
6074, 6275, 6276, 6315, 6314
6075, 6276, 6277, 6316, 6315
6076, 6277, 6278, 6317, 6316
6077, 6278, 6279, 6318, 6317
6078, 6279, 6280, 6319, 6318
6079, 6280, 6281, 6320, 6319
6080, 6281,  390,  391, 6320
6081,  437, 6282, 6321,  436
6082, 6282, 6283, 6322, 6321
6083, 6283, 6284, 6323, 6322
6084, 6284, 6285, 6324, 6323
6085, 6285, 6286, 6325, 6324
6086, 6286, 6287, 6326, 6325
6087, 6287, 6288, 6327, 6326
6088, 6288, 6289, 6328, 6327
6089, 6289, 6290, 6329, 6328
6090, 6290, 6291, 6330, 6329
6091, 6291, 6292, 6331, 6330
6092, 6292, 6293, 6332, 6331
6093, 6293, 6294, 6333, 6332
6094, 6294, 6295, 6334, 6333
6095, 6295, 6296, 6335, 6334
6096, 6296, 6297, 6336, 6335
6097, 6297, 6298, 6337, 6336
6098, 6298, 6299, 6338, 6337
6099, 6299, 6300, 6339, 6338
6100, 6300, 6301, 6340, 6339
6101, 6301, 6302, 6341, 6340
6102, 6302, 6303, 6342, 6341
6103, 6303, 6304, 6343, 6342
6104, 6304, 6305, 6344, 6343
6105, 6305, 6306, 6345, 6344
6106, 6306, 6307, 6346, 6345
6107, 6307, 6308, 6347, 6346
6108, 6308, 6309, 6348, 6347
6109, 6309, 6310, 6349, 6348
6110, 6310, 6311, 6350, 6349
6111, 6311, 6312, 6351, 6350
6112, 6312, 6313, 6352, 6351
6113, 6313, 6314, 6353, 6352
6114, 6314, 6315, 6354, 6353
6115, 6315, 6316, 6355, 6354
6116, 6316, 6317, 6356, 6355
6117, 6317, 6318, 6357, 6356
6118, 6318, 6319, 6358, 6357
6119, 6319, 6320, 6359, 6358
6120, 6320,  391,  392, 6359
6121,  436, 6321, 6360,  435
6122, 6321, 6322, 6361, 6360
6123, 6322, 6323, 6362, 6361
6124, 6323, 6324, 6363, 6362
6125, 6324, 6325, 6364, 6363
6126, 6325, 6326, 6365, 6364
6127, 6326, 6327, 6366, 6365
6128, 6327, 6328, 6367, 6366
6129, 6328, 6329, 6368, 6367
6130, 6329, 6330, 6369, 6368
6131, 6330, 6331, 6370, 6369
6132, 6331, 6332, 6371, 6370
6133, 6332, 6333, 6372, 6371
6134, 6333, 6334, 6373, 6372
6135, 6334, 6335, 6374, 6373
6136, 6335, 6336, 6375, 6374
6137, 6336, 6337, 6376, 6375
6138, 6337, 6338, 6377, 6376
6139, 6338, 6339, 6378, 6377
6140, 6339, 6340, 6379, 6378
6141, 6340, 6341, 6380, 6379
6142, 6341, 6342, 6381, 6380
6143, 6342, 6343, 6382, 6381
6144, 6343, 6344, 6383, 6382
6145, 6344, 6345, 6384, 6383
6146, 6345, 6346, 6385, 6384
6147, 6346, 6347, 6386, 6385
6148, 6347, 6348, 6387, 6386
6149, 6348, 6349, 6388, 6387
6150, 6349, 6350, 6389, 6388
6151, 6350, 6351, 6390, 6389
6152, 6351, 6352, 6391, 6390
6153, 6352, 6353, 6392, 6391
6154, 6353, 6354, 6393, 6392
6155, 6354, 6355, 6394, 6393
6156, 6355, 6356, 6395, 6394
6157, 6356, 6357, 6396, 6395
6158, 6357, 6358, 6397, 6396
6159, 6358, 6359, 6398, 6397
6160, 6359,  392,  393, 6398
6161,  435, 6360, 6399,  434
6162, 6360, 6361, 6400, 6399
6163, 6361, 6362, 6401, 6400
6164, 6362, 6363, 6402, 6401
6165, 6363, 6364, 6403, 6402
6166, 6364, 6365, 6404, 6403
6167, 6365, 6366, 6405, 6404
6168, 6366, 6367, 6406, 6405
6169, 6367, 6368, 6407, 6406
6170, 6368, 6369, 6408, 6407
6171, 6369, 6370, 6409, 6408
6172, 6370, 6371, 6410, 6409
6173, 6371, 6372, 6411, 6410
6174, 6372, 6373, 6412, 6411
6175, 6373, 6374, 6413, 6412
6176, 6374, 6375, 6414, 6413
6177, 6375, 6376, 6415, 6414
6178, 6376, 6377, 6416, 6415
6179, 6377, 6378, 6417, 6416
6180, 6378, 6379, 6418, 6417
6181, 6379, 6380, 6419, 6418
6182, 6380, 6381, 6420, 6419
6183, 6381, 6382, 6421, 6420
6184, 6382, 6383, 6422, 6421
6185, 6383, 6384, 6423, 6422
6186, 6384, 6385, 6424, 6423
6187, 6385, 6386, 6425, 6424
6188, 6386, 6387, 6426, 6425
6189, 6387, 6388, 6427, 6426
6190, 6388, 6389, 6428, 6427
6191, 6389, 6390, 6429, 6428
6192, 6390, 6391, 6430, 6429
6193, 6391, 6392, 6431, 6430
6194, 6392, 6393, 6432, 6431
6195, 6393, 6394, 6433, 6432
6196, 6394, 6395, 6434, 6433
6197, 6395, 6396, 6435, 6434
6198, 6396, 6397, 6436, 6435
6199, 6397, 6398, 6437, 6436
6200, 6398,  393,  394, 6437
6201,  434, 6399,  433,    8
6202, 6399, 6400,  432,  433
6203, 6400, 6401,  431,  432
6204, 6401, 6402,  430,  431
6205, 6402, 6403,  429,  430
6206, 6403, 6404,  428,  429
6207, 6404, 6405,  427,  428
6208, 6405, 6406,  426,  427
6209, 6406, 6407,  425,  426
6210, 6407, 6408,  424,  425
6211, 6408, 6409,  423,  424
6212, 6409, 6410,  422,  423
6213, 6410, 6411,  421,  422
6214, 6411, 6412,  420,  421
6215, 6412, 6413,  419,  420
6216, 6413, 6414,  418,  419
6217, 6414, 6415,  417,  418
6218, 6415, 6416,  416,  417
6219, 6416, 6417,  415,  416
6220, 6417, 6418,  414,  415
6221, 6418, 6419,  413,  414
6222, 6419, 6420,  412,  413
6223, 6420, 6421,  411,  412
6224, 6421, 6422,  410,  411
6225, 6422, 6423,  409,  410
6226, 6423, 6424,  408,  409
6227, 6424, 6425,  407,  408
6228, 6425, 6426,  406,  407
6229, 6426, 6427,  405,  406
6230, 6427, 6428,  404,  405
6231, 6428, 6429,  403,  404
6232, 6429, 6430,  402,  403
6233, 6430, 6431,  401,  402
6234, 6431, 6432,  400,  401
6235, 6432, 6433,  399,  400
6236, 6433, 6434,  398,  399
6237, 6434, 6435,  397,  398
6238, 6435, 6436,  396,  397
6239, 6436, 6437,  395,  396
6240, 6437,  394,    7,  395
*Nset, nset=WaferAll, generate
    1,  6437,     1
*Elset, elset=WaferAll, generate
    1,  6240,     1
** Section: WaferSec
*Solid Section, elset=WaferAll, controls=EC-1, material=M_4H_SiC
1.,
*End Part
**  
**
** ASSEMBLY
**
*Assembly, name=Assembly
**  
*Instance, name=Wafer-1, part=Wafer
*End Instance
**  
*Instance, name=Blade-1, part=Blade
       2e-05,     0.000203,           0.
*End Instance
**  
*Nset, nset=_PickedSet6, internal, instance=Wafer-1
   1,   4, 166, 167, 168, 169, 170, 171, 172, 173, 174, 175, 176, 177, 178, 179
 180, 181, 182, 183, 184, 185, 186, 187, 188, 189, 190, 191, 192, 193, 194, 195
 196, 197, 198, 199, 200, 201, 202, 203, 204, 205, 206, 207, 208, 209, 210, 211
 212, 213, 214, 215, 216, 217, 218, 219, 220, 221, 222, 223, 224, 225, 226, 227
 228, 229, 230, 231, 232, 233, 234, 235, 236, 237, 238, 239, 240, 241, 242, 243
 244,
*Elset, elset=_PickedSet6, internal, instance=Wafer-1, generate
    1,  3161,    40
*Nset, nset=_PickedSet7, internal, instance=Wafer-1
   5,   6, 282, 283, 284, 285, 286, 287, 288, 289, 290, 291, 292, 293, 294, 295
 296, 297, 298, 299, 300, 301, 302, 303, 304, 305, 306, 307, 308, 309, 310, 311
 312, 313, 314, 315, 316, 317, 318, 319, 320
*Elset, elset=_PickedSet7, internal, instance=Wafer-1, generate
 4681,  4720,     1
*Nset, nset=_PickedSet8, internal, instance=Wafer-1
   7,   8, 395, 396, 397, 398, 399, 400, 401, 402, 403, 404, 405, 406, 407, 408
 409, 410, 411, 412, 413, 414, 415, 416, 417, 418, 419, 420, 421, 422, 423, 424
 425, 426, 427, 428, 429, 430, 431, 432, 433
*Elset, elset=_PickedSet8, internal, instance=Wafer-1, generate
 6201,  6240,     1
*Nset, nset=_PickedSet9, internal, instance=Blade-1
 17,
*Nset, nset=_PickedSet10, internal, instance=Blade-1
 17,
*Nset, nset=_PickedSet13, internal, instance=Blade-1
 17,
*Elset, elset=_BladeSurf_SPOS, internal, instance=Blade-1, generate
  1,  15,   1
*Surface, type=ELEMENT, name=BladeSurf
_BladeSurf_SPOS, SNEG
*Elset, elset=_WaferTop_S2, internal, instance=Wafer-1, generate
   40,  3200,    40
*Surface, type=ELEMENT, name=WaferTop
_WaferTop_S2, S2
*Rigid Body, ref node=Blade-1.Blade-RefPt_, elset=Blade-1.Blade
*End Assembly
** 
** ELEMENT CONTROLS
** 
*Section Controls, name=EC-1, DISTORTION CONTROL=YES, hourglass=ENHANCED
1., 1., 1.
** 
** MATERIALS
** 
*Material, name=M_4H_SiC
*Density
3210.,
*Drucker Prager
 68.8,1.,0.
*Drucker Prager Hardening, type=SHEAR
 1e+09,0.
*Elastic
 4.48e+11, 0.21
** 
** INTERACTION PROPERTIES
** 
*Surface Interaction, name=FricContact
*Friction
 0.3,
*Surface Behavior, pressure-overclosure=HARD
** 
** BOUNDARY CONDITIONS
** 
** Name: BladeRot Type: Displacement/Rotation
*Boundary
_PickedSet9, 6, 6
** Name: WaferBottom Type: Symmetry/Antisymmetry/Encastre
*Boundary
_PickedSet6, ENCASTRE
** Name: WaferLeft Type: Displacement/Rotation
*Boundary
_PickedSet7, 1, 1
** Name: WaferRight Type: Displacement/Rotation
*Boundary
_PickedSet8, 1, 1
** ----------------------------------------------------------------
** 
** STEP: Plunge
** 
*Step, name=Plunge, nlgeom=YES
*Dynamic, Explicit
, 6e-05
*Bulk Viscosity
0.06, 1.2
** Mass Scaling: Semi-Automatic
**               Whole Model
*Fixed Mass Scaling, dt=1.00e-08, type=BELOW MIN
** 
** BOUNDARY CONDITIONS
** 
** Name: BladeMotion Type: Velocity/Angular velocity
*Boundary, type=VELOCITY
_PickedSet10, 1, 1
_PickedSet10, 2, 2, -0.5
** 
** INTERACTIONS
** 
** Interaction: BladeCut
*Contact Pair, interaction=FricContact, mechanical constraint=PENALTY, cpset=BladeCut
BladeSurf, WaferTop
** 
** OUTPUT REQUESTS
** 
*Restart, write, number interval=1, time marks=NO
** 
** FIELD OUTPUT: F-Output-1
** 
*Output, field, time interval=1.72e-05
*Node Output
U, 
*Element Output, directions=YES
ENER, PEEQ, S, SDV, STATUS
** 
** HISTORY OUTPUT: H-Output-1
** 
*Output, history, variable=PRESELECT
** 
** HISTORY OUTPUT: BladeForce
** 
*Output, history, time interval=2e-07
*Node Output, nset=_PickedSet13
RF1, RF2, U1, U2
*End Step
** ----------------------------------------------------------------
** 
** STEP: Feed
** 
*Step, name=Feed, nlgeom=YES
*Dynamic, Explicit
, 0.0008
*Bulk Viscosity
0.06, 1.2
** Mass Scaling: Semi-Automatic
**               Whole Model
*Fixed Mass Scaling, dt=1.00e-08, type=BELOW MIN
** 
** BOUNDARY CONDITIONS
** 
** Name: BladeMotion Type: Velocity/Angular velocity
*Boundary, type=VELOCITY
_PickedSet10, 1, 1, 0.5
_PickedSet10, 2, 2
** 
** OUTPUT REQUESTS
** 
*Restart, write, number interval=1, time marks=NO
** 
** FIELD OUTPUT: F-Output-1
** 
*Output, field, time interval=1.72e-05
*Node Output
U, 
*Element Output, directions=YES
ENER, PEEQ, S, SDV, STATUS
** 
** HISTORY OUTPUT: H-Output-1
** 
*Output, history, variable=PRESELECT
** 
** HISTORY OUTPUT: BladeForce
** 
*Output, history, time interval=2.66667e-06
*Node Output, nset=_PickedSet13
RF1, RF2, U1, U2
*End Step
